12
Properties=species:S:1:pos:R:3:molID:I:1:momenta:R:3:force_mace:R:3:forces:R:3:energies:R:1 Nmols=1 Comp=DMC(1) energy_mace=-589.6610046586371 energy=-589.6610046586371 stress="1.0366101636124796e-05 7.281599642922281e-07 5.403837694821243e-06 7.281599642922281e-07 3.3108964111264812e-06 3.576872252234619e-06 5.403837694821243e-06 3.576872252234619e-06 1.511941363511848e-06" free_energy=-589.6610046586371 pbc="F F F"
C       -0.06354920       0.02615914       0.03273994        0       0.17844136      -0.34376020       1.07719402      -1.20928915      -1.68182352      -2.46304096      -1.20928915      -1.68182352      -2.46304096     -59.26739168
O       -1.09745824      -0.56171083      -0.33384407        0      -0.37132631       0.01130763       0.61994678       1.77505956       1.28156039       2.86185720       1.77505956       1.28156039       2.86185720    -109.72559659
O        0.59339279       0.04178514       1.16893291        0      -0.06068457      -0.59711980      -0.95669715      -0.74983088       0.34614459       0.58804668      -0.74983088       0.34614459       0.58804668    -110.56603316
O        0.70731479       0.58054012      -0.92796504        0      -0.60590825       0.76431855      -0.46687405      -0.28284769      -0.58603141      -0.18945838      -0.28284769      -0.58603141      -0.18945838    -110.39885938
C       -0.18480919      -0.38314587       2.27627182        0      -0.04014364      -0.06563936      -0.56096274      -0.55168325       1.09250880       1.24189391      -0.55168325       1.09250880       1.24189391     -58.09840550
C        0.11790480       0.31317315      -2.18905210        0       0.29358387      -0.58416592       0.23783068      -1.74978238       1.40382346      -1.78768629      -1.74978238       1.40382346      -1.78768629     -58.15999571
H        0.50081283      -0.52887988       3.16355896        0       0.01339961       0.14254610       0.22731550      -0.87375256      -0.17353336      -1.24035003      -0.87375256      -0.17353336      -1.24035003     -14.01474788
H       -0.99130619       0.37122315       2.57026887        0      -0.01864405       0.28794111      -0.37432648       1.20027936      -0.21845194      -0.30168400       1.20027936      -0.21845194      -0.30168400     -13.87744918
H       -0.79898220      -1.19689691       1.93909299        0       0.07867573      -0.13808167       0.14732151       0.16298595      -1.05691661       0.20494291       0.16298595      -1.05691661       0.20494291     -13.90566007
H        0.82173383       0.39293513      -3.04121518        0       0.06493475       0.18520010      -0.03584277      -0.17402633      -0.19529695       0.86511466      -0.17402633      -0.19529695       0.86511466     -14.06921222
H       -0.51975018      -0.63449883      -2.23208618        0       0.25642326       0.05312722       0.01555753       1.30641351       1.00381677       0.09249592       1.30641351       1.00381677       0.09249592     -13.82094934
H       -0.68493521       1.15580308      -2.35394812        0       0.21124824       0.28432625       0.06953715       1.14647386      -1.21580022       0.12786837       1.14647386      -1.21580022       0.12786837     -13.75670396
12
Properties=species:S:1:pos:R:3:molID:I:1:momenta:R:3:force_mace:R:3:forces:R:3:energies:R:1 Nmols=1 Comp=DMC(1) energy_mace=-590.0219877758998 energy=-590.0219877758998 stress="-8.757588848977824e-06 -5.648121697250833e-06 -7.820583212966301e-07 -5.648121697250833e-06 4.6888994510923934e-06 -6.533956280291805e-07 -7.820583212966301e-07 -6.533956280291805e-07 -6.241264661098965e-06" free_energy=-590.0219877758998 pbc="F F F"
C       -0.06840880      -0.03169351      -0.00245939        0       0.39028396      -0.65227211      -1.23828568       3.04722535       1.56464691      -0.24238949       3.04722535       1.56464691      -0.24238949     -59.23109243
O       -1.08724395      -0.53954357      -0.20914023        0      -0.51899646      -0.36272666       2.76695181      -3.45807720      -1.70908682      -0.31860683      -3.45807720      -1.70908682      -0.31860683    -110.07686563
O        0.58416605      -0.00173731       1.14003895        0      -0.70989347      -0.93115102       0.30230925       0.75045178      -0.13525958       0.46634016       0.75045178      -0.13525958       0.46634016    -110.44169406
O        0.65987059       0.60552034      -0.94137822        0      -0.41134725       0.56463363       0.16373553       0.38169117      -0.25692692       0.54633390       0.38169117      -0.25692692       0.54633390    -110.42778062
C       -0.22248013      -0.37809052       2.25084639        0      -0.38001270       0.06874433      -0.51063088       0.43816639       1.08478129       0.09489505       0.43816639       1.08478129       0.09489505     -58.13723808
C        0.15683707       0.35759108      -2.21742398        0       0.75196684       1.13684087      -0.98322484      -0.25698176       0.13591359      -1.70876481      -0.25698176       0.13591359      -1.70876481     -58.18460311
H        0.43731975      -0.45974016       3.11300367        0       0.43695761       0.06462110       0.03561945       0.02578753       0.18682187      -0.01976842       0.02578753       0.18682187      -0.01976842     -13.96584047
H       -0.88020822       0.51202522       2.35004457        0      -0.10189840       0.15649839      -0.05682165      -0.34774439      -1.07750428       0.57232076      -0.34774439      -1.07750428       0.57232076     -13.86588885
H       -0.65807105      -1.35179778       2.07057674        0      -0.01307900       0.05627091      -0.05695868      -0.63641222       0.04847465      -0.05863428      -0.63641222       0.04847465      -0.05863428     -13.97603956
H        0.94961326       0.45423817      -2.96898924        0       0.41094207       0.07755218      -0.02235265       0.15804040       0.29378146       0.32486078       0.15804040       0.29378146       0.32486078     -13.92525124
H       -0.16498698      -0.72120677      -2.31158106        0       0.27162738      -0.03634356      -0.07422890      -0.41153155       1.17961367       0.22751801      -0.41153155       1.17961367       0.22751801     -13.86955380
H       -0.59209134       1.17483977      -2.45685226        0      -0.12655058      -0.14266806      -0.32611277       0.30938449      -1.31525582       0.11589517       0.30938449      -1.31525582       0.11589517     -13.92013993
12
Properties=species:S:1:pos:R:3:molID:I:1:momenta:R:3:force_mace:R:3:forces:R:3:energies:R:1 Nmols=1 Comp=DMC(1) energy_mace=-589.5631088239945 energy=-589.5631088239945 stress="6.528477205787968e-06 4.281841508251782e-06 -2.021694835176741e-06 4.281841508251782e-06 6.469481349882439e-07 1.244001496817051e-06 -2.021694835176741e-06 1.244001496817051e-06 -7.035801295998972e-06" free_energy=-589.5631088239945 pbc="F F F"
C       -0.03098847      -0.07080952      -0.07697104        0      -0.30443445      -0.51467386      -0.37627691      -2.84146642      -0.91737626       2.68934021      -2.84146642      -0.91737626       2.68934021     -59.27337247
O       -1.15187887      -0.57988413      -0.09586754        0      -0.60827875      -0.81869767       0.58023872       1.61093929       0.79510241      -1.91505551       1.61093929       0.79510241      -1.91505551    -109.75664993
O        0.57421721      -0.07480594       1.13042211        0      -0.01624451      -1.16964497      -0.46829121       0.98633504       0.70654468      -0.56477001       0.98633504       0.70654468      -0.56477001    -110.43581090
O        0.65206292       0.63059853      -0.91892966        0       0.00264834       0.75260234       0.12477600      -0.73751740      -0.14277873      -1.09345871      -0.73751740      -0.14277873      -1.09345871    -110.59288382
C       -0.22542067      -0.34550127       2.22006535        0      -0.60518754       0.09298260      -0.22375975      -2.09580831       0.43320603       1.25764078      -2.09580831       0.43320603       1.25764078     -58.16738035
C        0.24705410       0.45738247      -2.30213686        0       1.63390086       1.06048777      -0.66258086      -0.31239869      -1.28485189       0.79421497      -0.31239869      -1.28485189       0.79421497     -57.97909194
H        0.41698476      -0.37982586       3.05130093        0       0.03679720      -0.03122144       0.49836442       0.91102173      -0.60361206       0.96526826       0.91102173      -0.60361206       0.96526826     -13.90993259
H       -1.00749332       0.39834522       2.54368455        0      -0.21052055       0.01908211       0.18226887       0.73860331       0.38924303      -0.97905538       0.73860331       0.38924303      -0.97905538     -13.83365397
H       -0.89271560      -1.20223404       2.11693636        0      -0.12942617       0.16091374       0.05672960       0.56200290      -0.70255066      -0.23493232       0.56200290      -0.70255066      -0.23493232     -13.92979149
H        1.16195796       0.86798917      -2.73372236        0       0.09632754       0.59923256       0.14484474      -0.68550777      -0.50855245      -1.07410558      -0.68550777      -0.50855245      -1.07410558     -13.90743261
H       -0.07832026      -0.64070858      -2.38330989        0       0.18969888      -0.08333081      -0.11429603       1.26560698       0.98562750      -0.25855904       1.26560698       0.98562750      -0.25855904     -13.79061062
H       -0.70946481       0.91313231      -2.59756417        0      -0.08528085      -0.06773238       0.25798242       0.59818935       0.84999840       0.41347233       0.59818935       0.84999840       0.41347233     -13.98649814
12
Properties=species:S:1:pos:R:3:molID:I:1:momenta:R:3:force_mace:R:3:forces:R:3:energies:R:1 Nmols=1 Comp=DMC(1) energy_mace=-589.6171532250305 energy=-589.6171532250305 stress="-1.7350937300500797e-07 -2.08158282037642e-06 -1.001527735209593e-05 -2.08158282037642e-06 6.991710243180472e-06 -1.0761474341403505e-06 -1.001527735209593e-05 -1.0761474341403505e-06 -2.4622748439365055e-06" free_energy=-589.6171532250305 pbc="F F F"
C       -0.10911279      -0.10839810      -0.01140430        0      -0.58074899       0.21209607       1.35788711       1.89800767       1.55169026      -0.97601783       1.89800767       1.55169026      -0.97601783     -59.19128276
O       -1.17090910      -0.59841964      -0.14361174        0      -0.52373344       0.36733623      -1.77193612      -1.14218453      -0.44855025      -0.89804146      -1.14218453      -0.44855025      -0.89804146    -110.06553680
O        0.59662476      -0.13337647       1.10827602        0       0.49122897      -1.05660909      -0.11419399      -0.78866895      -0.11843543       1.20839448      -0.78866895      -0.11843543       1.20839448    -110.34257763
O        0.60942490       0.67698093      -0.92251520        0      -1.01346542       0.45269199       0.16061285       0.33516684      -1.24502085       1.68486609       0.33516684      -1.24502085       1.68486609    -110.28704319
C       -0.28980984      -0.35290292       2.26815323        0      -0.57054320      -0.60788593       0.30099782      -0.43024218      -1.66598684      -2.34310989      -0.43024218      -1.66598684      -2.34310989     -58.05447450
C        0.37356689       0.52563090      -2.28100052        0       1.15348051       0.53305667       0.57523258      -0.40856385      -0.63069750      -1.06695775      -0.40856385      -0.63069750      -1.06695775     -58.17697727
H        0.34304445      -0.53444059       3.06283109        0       0.31068970      -0.24524617       0.25487652       1.34322832       0.44184783       1.79985051       1.34322832       0.44184783       1.79985051     -13.96983815
H       -0.94812978       0.50624245       2.31831920        0       0.01101840       0.25129489      -0.32265186      -0.16615002      -0.26552033       0.42105695      -0.16615002      -0.26552033       0.42105695     -14.04841666
H       -0.81783359      -1.37763609       2.15542343        0       0.11440353      -0.08461428      -0.01874951       0.18249928       1.65084587      -0.28904762       0.18249928       1.65084587      -0.28904762     -13.84216191
H        1.02562761       1.16167990      -2.86170179        0      -0.09789619       0.32959966      -0.20481627       0.19485741       0.77741821       0.35587987       0.19485741       0.77741821       0.35587987     -13.91021786
H        0.73129083      -0.50475934      -2.69385665        0       0.62860658       0.16966899      -0.20404746      -1.49529448       1.04466156       1.02708259      -1.49529448       1.04466156       1.02708259     -13.87818702
H       -0.66704658       0.92622665      -2.37704428        0       0.07695956      -0.32138904      -0.01321166       0.47734450      -1.09225252      -0.92395594       0.47734450      -1.09225252      -0.92395594     -13.85043947
12
Properties=species:S:1:pos:R:3:molID:I:1:momenta:R:3:force_mace:R:3:forces:R:3:energies:R:1 Nmols=1 Comp=DMC(1) energy_mace=-589.6075060218403 energy=-589.6075060218403 stress="5.3917369192014034e-06 4.6481858097818075e-06 -9.472416256667432e-08 4.6481858097818075e-06 7.2571993159800085e-06 4.099851634550631e-06 -9.472416256667432e-08 4.099851634550631e-06 7.884541218277299e-07" free_energy=-589.6075060218403 pbc="F F F"
C       -0.11475487      -0.05265862       0.00557689        0      -0.10054324       0.44588636      -0.86668067      -1.50553973      -1.82147243      -1.07707985      -1.50553973      -1.82147243      -1.07707985     -59.33980947
O       -1.19635492      -0.59852824      -0.24001295        0       0.19089511      -0.10774308      -0.91984273       2.27111808       1.21492876       0.86063262       2.27111808       1.21492876       0.86063262    -109.79721640
O        0.61543401      -0.20213769       1.13842632        0      -0.07592723      -0.82640953       0.86193027      -1.46895107       0.26473353      -0.11694880      -1.46895107       0.26473353      -0.11694880    -110.33906705
O        0.53728366       0.70254032      -0.86144033        0      -1.06777369       0.80144085       1.77413038       0.61373572       0.41886714      -0.63476628       0.61373572       0.41886714      -0.63476628    -110.35213765
C       -0.26545486      -0.38647645       2.28122850        0       0.61026927      -0.80246760      -0.61594400      -2.56156278      -0.75199104      -4.42448054      -2.56156278      -0.75199104      -4.42448054     -58.06094517
C        0.44211118       0.56126665      -2.29297138        0       0.42354751       0.23618561      -0.44080107      -0.60354446      -2.53564135       0.26128856      -0.60354446      -2.53564135       0.26128856     -58.09368078
H        0.29261941      -0.42274751       3.09974784        0      -0.03015118       0.13032653       0.31627745       2.57176054      -0.78565855       3.45373158       2.57176054      -0.78565855       3.45373158     -13.95012597
H       -0.86655837       0.51791987       2.34005038        0      -0.07777445       0.24461823       0.05953236      -0.63743783      -0.05688123       0.03856256      -0.63743783      -0.05688123       0.03856256     -13.92188315
H       -0.90843064      -1.33108594       2.05635944        0      -0.22908813       0.23970455      -0.01130268       0.91249272       1.54710685       0.76536434       0.91249272       1.54710685       0.76536434     -13.90529709
H        0.92998225       1.46339030      -2.62588689        0      -0.18044221       0.21414780       0.19322935      -0.21886449      -0.21689179      -0.48005239      -0.21886449      -0.21689179      -0.48005239     -14.02267805
H        0.94538211      -0.43542705      -2.62779525        0       0.34873441      -0.15085680       0.00723365      -0.10239614       1.71084353       0.68756110      -0.10239614       1.71084353       0.68756110     -13.86861413
H       -0.60681757       0.33732420      -2.65236121        0       0.18825384      -0.42483292      -0.35776232       0.72918942       1.01205658       0.66618710       0.72918942       1.01205658       0.66618710     -13.95605112
12
Properties=species:S:1:pos:R:3:molID:I:1:momenta:R:3:force_mace:R:3:forces:R:3:energies:R:1 Nmols=1 Comp=DMC(1) energy_mace=-589.585953468858 energy=-589.585953468858 stress="-3.270869241619897e-06 -3.5368785003991574e-06 2.661340059134563e-06 -3.5368785003991574e-06 -5.226568147189182e-06 9.233260183668531e-08 2.661340059134563e-06 9.233260183668531e-08 -2.014581577998758e-06" free_energy=-589.585953468858 pbc="F F F"
C       -0.14436724      -0.06943232      -0.05837972        0       0.35932801      -0.05894082      -0.32979568       2.77590157       0.25431855       2.35453020       2.77590157       0.25431855       2.35453020     -59.13290253
O       -1.16546175      -0.57235748      -0.27106061        0       0.15513334       0.20141570      -0.35893971      -2.73658067      -1.51338095      -0.52347261      -2.73658067      -1.51338095      -0.52347261    -110.08921174
O        0.58518494      -0.24600285       1.15009845        0      -0.52841627      -0.48526061      -0.36031464      -0.43574496       0.10924103      -1.78709327      -0.43574496       0.10924103      -1.78709327    -110.26464594
O        0.50702753       0.75742960      -0.80375768        0      -0.33359464       1.17726875      -0.35141341       1.11717499       1.06198695      -1.70427722       1.11717499       1.06198695      -1.70427722    -110.38360333
C       -0.24963066      -0.42372616       2.23117963        0      -0.53851196      -0.45379691      -0.62275816      -2.47638313      -1.22429837      -1.28874681      -2.47638313      -1.22429837      -1.28874681     -58.17269544
C        0.49500674       0.54246222      -2.24159198        0       0.81609839      -0.15744576       1.69208285      -0.68839404       0.83601794       0.16189088      -0.68839404       0.83601794       0.16189088     -58.04771457
H        0.23981272      -0.59264497       3.11071584        0       0.18191392      -0.41900615      -0.05148116       1.82297496      -0.66795483       1.98835868       1.82297496      -0.66795483       1.98835868     -13.99251042
H       -0.85559404       0.41674535       2.35622858        0       0.08886519       0.09408251       0.03810854      -1.00935605       2.02557034       0.39454757      -1.00935605       2.02557034       0.39454757     -13.81911086
H       -1.05523749      -1.20631348       2.10511836        0      -0.11343079      -0.16087357      -0.04066228       0.96607850      -0.04590004      -0.19687232       0.96607850      -0.04590004      -0.19687232     -13.84084886
H        0.59649876       1.54666266      -2.70196190        0      -0.31877283       0.13919577      -0.03169784       0.73254168      -0.44796626       0.37915512       0.73254168      -0.44796626       0.37915512     -13.90787293
H        1.36619335      -0.13138104      -2.43177812        0       0.60852337       0.23932494      -0.00774398      -1.20856725       0.42557831      -0.36124179      -1.20856725       0.42557831      -0.36124179     -14.02992849
H       -0.54984850       0.29575709      -2.59853643        0      -0.37713573      -0.11596385       0.42461546       1.14035439      -0.81321267       0.58322157       1.14035439      -0.81321267       0.58322157     -13.90490836
12
Properties=species:S:1:pos:R:3:molID:I:1:momenta:R:3:force_mace:R:3:forces:R:3:energies:R:1 Nmols=1 Comp=DMC(1) energy_mace=-589.2889832672378 energy=-589.2889832672378 stress="-3.8728389198975405e-06 9.696244870627866e-06 -3.6798151033931514e-06 9.696244870627866e-06 -3.915227919503821e-06 4.4225185657483895e-07 -3.6798151033931514e-06 4.4225185657483895e-07 -2.1401886191339163e-05" free_energy=-589.2889832672378 pbc="F F F"
C       -0.07283229      -0.06751254      -0.01302070        0       0.70272054      -0.08996580       0.64390591      -3.94705493      -0.41973859      -2.74961286      -3.94705493      -0.41973859      -2.74961286     -59.31303725
O       -1.18317766      -0.57375353      -0.31983081        0      -0.00823031       0.01908495      -0.84190192       3.24359654       1.37715384       0.92619785       3.24359654       1.37715384       0.92619785    -109.65043152
O        0.53244588      -0.27953877       1.09430391        0      -1.27458478      -0.46755833      -0.96220561       0.63362478       0.20877205       1.27232337       0.63362478       0.20877205       1.27232337    -110.50908429
O        0.55408410       0.83046650      -0.82748628        0       2.02014041       1.03028923       0.74122260       0.31647091      -0.27439156       3.49042278       0.31647091      -0.27439156       3.49042278    -110.49182583
C       -0.34765388      -0.44968704       2.23825905        0      -0.70422054      -0.33062631       0.44896434       0.66080891      -1.80435587      -2.45717818       0.66080891      -1.80435587      -2.45717818     -57.97308420
C        0.51130450       0.55221031      -2.13760529        0      -0.41928779       0.55771164       1.11261361      -1.47779636       0.47203000      -1.10642710      -1.47779636       0.47203000      -1.10642710     -58.17426264
H        0.32223152      -0.86834897       2.88017237        0      -0.14887474       0.01883331      -0.34462943       1.90786794      -0.80615647       2.73153925       1.90786794      -0.80615647       2.73153925     -13.72280463
H       -0.68294959       0.48152766       2.52728445        0       0.03078387      -0.13808266       0.21289468      -1.31164792       1.55441041       0.57711011      -1.31164792       1.55441041       0.57711011     -14.07147144
H       -0.99908321      -1.29136327       2.01630416        0      -0.20023598      -0.01890979      -0.15996531      -1.01254035       0.56870845      -0.22699345      -1.01254035       0.56870845      -0.22699345     -13.92401026
H        0.49042934       1.49386940      -2.63070800        0      -0.33807791       0.14259408      -0.27806155      -1.03107984       0.94384524      -0.75416552      -1.03107984       0.94384524      -0.75416552     -13.78098010
H        1.39084248       0.19775133      -2.51481415        0       0.02081357       0.01214415      -0.23551126       2.62335783      -1.70161163      -0.65907924       2.62335783      -1.70161163      -0.65907924     -13.81266399
H       -0.27688637      -0.15319379      -2.28292978        0       0.31905365      -0.73551447      -0.33732603      -0.60560751      -0.11866587      -1.04413702      -0.60560751      -0.11866587      -1.04413702     -13.86532712
12
Properties=species:S:1:pos:R:3:molID:I:1:momenta:R:3:force_mace:R:3:forces:R:3:energies:R:1 Nmols=1 Comp=DMC(1) energy_mace=-589.2302765366017 energy=-589.2302765366017 stress="-1.3704999802591897e-05 -2.418387285591264e-06 -5.597719406687247e-06 -2.418387285591264e-06 -9.891369264271596e-06 6.29463256694553e-07 -5.597719406687247e-06 6.29463256694553e-07 -2.1646122981188776e-06" free_energy=-589.2302765366017 pbc="F F F"
C       -0.11909583      -0.09759332      -0.06194495        0      -0.09463280       0.98307044      -0.47244085       4.55872584       3.74544409       1.81223699       4.55872584       3.74544409       1.81223699     -59.04989682
O       -1.11911038      -0.53745420      -0.38463493        0       0.11746167       0.22260498      -1.75099437      -4.15522628      -1.91776976      -2.05610633      -4.15522628      -1.91776976      -2.05610633    -110.13921620
O        0.45718661      -0.30015668       1.11879147        0      -1.06021570       0.19031245       1.61916703       0.45934027       0.38598900       0.88450323       0.45934027       0.38598900       0.88450323    -110.38947004
O        0.65243928       0.87177038      -0.74036934        0       0.66061944      -0.37831680       1.56213300      -2.24274229      -2.77253828      -0.89376354      -2.24274229      -2.77253828      -0.89376354    -110.08607695
C       -0.36525562      -0.51126062       2.25245181        0       0.23876838      -1.20936361       0.38065364      -0.94202212       0.45586753      -0.97299167      -0.94202212       0.45586753      -0.97299167     -58.08461496
C        0.50449291       0.56776163      -2.17652397        0       0.77198742      -0.15227880      -1.30384183       1.32720055       1.75113920       1.97287760       1.32720055       1.75113920       1.97287760     -57.97548247
H        0.25803341      -0.91088467       2.97195193        0      -0.65503798      -0.10134980      -0.02354367       1.12593042      -1.26434592       1.24729736       1.12593042      -1.26434592       1.24729736     -13.93689307
H       -0.84465518       0.32426433       2.71567599        0       0.01679085      -0.18277907      -0.13739157       0.28300768       1.58470570      -0.19771281       0.28300768       1.58470570      -0.19771281     -13.90356962
H       -1.25705924      -1.05750889       2.03907207        0       0.03513642       0.08067657       0.12217943      -0.21757666      -1.25932817      -0.53478866      -0.21757666      -1.25932817      -0.53478866     -13.89998466
H        0.04314869       1.36185768      -2.67739236        0      -0.31311156      -0.01650909      -0.10924936      -0.01639084       1.75097444      -0.55660360      -0.01639084       1.75097444      -0.55660360     -14.01102408
H        1.48915127       0.32505254      -2.41616175        0       0.11176937       0.50136488       0.10933201       1.75072250       0.22472595      -1.05765932       1.75072250       0.22472595      -1.05765932     -13.88682180
H       -0.03696832      -0.22727664      -2.50730009        0       0.17046449       0.06256786       0.00399654      -1.93096907      -2.68486378       0.35271075      -1.93096907      -2.68486378       0.35271075     -13.86722588
12
Properties=species:S:1:pos:R:3:molID:I:1:momenta:R:3:force_mace:R:3:forces:R:3:energies:R:1 Nmols=1 Comp=DMC(1) energy_mace=-589.1476225201095 energy=-589.1476225201095 stress="-5.795165295264533e-06 2.354586846494359e-06 6.7050817190707305e-06 2.354586846494359e-06 -1.260554477425847e-06 3.661227027447901e-08 6.7050817190707305e-06 3.661227027447901e-08 7.685195389208434e-06" free_energy=-589.1476225201095 pbc="F F F"
C       -0.07708928      -0.02208534      -0.02871580        0      -0.50517857      -0.11944075       0.22706625      -4.71072977      -3.76655391      -0.05370263      -4.71072977      -3.76655391      -0.05370263     -59.38345958
O       -1.12277113      -0.55920132      -0.52369089        0       0.71013437      -0.08158009      -1.99543032       2.96513681       1.32717322       2.54425373       2.96513681       1.32717322       2.54425373    -109.46629629
O        0.44003565      -0.30015461       1.21071948        0       0.52328173       0.07618816       1.19943351       1.13002551      -0.25393054      -1.66778835       1.13002551      -0.25393054      -1.66778835    -110.30431823
O        0.60889005       0.78243739      -0.70936223        0      -0.67735472      -1.83008198      -0.80811507       2.78959416       2.25766453      -2.27554159       2.78959416       2.25766453      -2.27554159    -110.30750702
C       -0.39684104      -0.56582236       2.29243019        0      -0.48331564      -0.32564183       1.27882038      -0.90425930       1.42385539       0.72292119      -0.90425930       1.42385539       0.72292119     -58.14324093
C        0.57211182       0.65491263      -2.23573880        0       0.69685246       1.46031802       0.18932954      -1.04180236      -1.35087038       3.84093072      -1.04180236      -1.35087038       3.84093072     -57.85243928
H        0.01367342      -1.04693444       3.20827312        0      -0.41452099       0.37718432      -0.35914484       0.56629456       0.34755309      -0.99268686       0.56629456       0.34755309      -0.99268686     -14.03411384
H       -0.67501124       0.48747008       2.54521938        0       0.04979448      -0.25887781      -0.04802150      -0.69004774      -0.93792348       0.62315279      -0.69004774      -0.93792348       0.62315279     -13.76905786
H       -1.23463379      -1.17326723       1.98773568        0       0.18184484      -0.15026684      -0.04920781      -0.54660678      -0.01838917      -0.21829153      -0.54660678      -0.01838917      -0.21829153     -13.97986518
H        0.06384047       1.47811976      -2.56993704        0      -0.20901001       0.14398194       0.30403519      -2.05217075       1.69109884      -0.75977141      -2.05217075       1.69109884      -0.75977141     -13.94099879
H        1.51115059       0.82499535      -2.62641113        0      -0.38419999       0.24814406      -0.14879530       2.26520962      -0.58545953      -0.39100477       2.26520962      -0.58545953      -0.39100477     -14.00630496
H        0.09634538      -0.30574790      -2.28573652        0       0.51167205       0.46007281       0.21002996       0.22935604      -0.13421805      -1.37247130       0.22935604      -0.13421805      -1.37247130     -13.96002056
12
Properties=species:S:1:pos:R:3:molID:I:1:momenta:R:3:force_mace:R:3:forces:R:3:energies:R:1 Nmols=1 Comp=DMC(1) energy_mace=-589.0574600667841 energy=-589.0574600667841 stress="1.4528299925946572e-06 -4.255192371370788e-06 -2.3719654608982094e-06 -4.255192371370788e-06 1.144674366113897e-06 -1.2769226260828565e-06 -2.3719654608982094e-06 -1.2769226260828565e-06 1.2943895555082359e-05" free_energy=-589.0574600667841 pbc="F F F"
C       -0.18699105      -0.08639438      -0.00442549        0       0.18268707      -0.68207304      -0.12678526       5.44886529       1.31298160       0.23476395       5.44886529       1.31298160       0.23476395     -58.89569577
O       -1.04809745      -0.59723306      -0.58168431        0      -0.64261792      -1.64982238      -0.70711223      -3.30162452      -1.96139258       0.23583202      -3.30162452      -1.96139258       0.23583202    -110.02753768
O        0.49728795      -0.29824901       1.23279530        0       0.41543974      -0.03286057      -0.12387206      -3.95496321       0.47246633      -0.74222148      -3.95496321       0.47246633      -0.74222148    -110.09311380
O        0.63613710       0.72969037      -0.77685393        0       2.08458986      -0.08386917      -0.60666901       1.83218221       0.00039927       2.59492953       1.83218221       0.00039927       2.59492953    -110.15023951
C       -0.46488502      -0.55061947       2.32375247        0      -0.60777466       0.24328700       0.66984986       0.48118202       0.22798150       1.13980428       0.48118202       0.22798150       1.13980428     -58.10632315
C        0.58763489       0.80810267      -2.15354629        0      -0.86636650       1.42580061       0.84010078      -3.63869162      -2.51471698      -0.60939404      -3.63869162      -2.51471698      -0.60939404     -58.19335423
H        0.05563547      -1.09464524       3.21088021        0      -0.08662124       0.14229823      -0.44865921      -0.66402392       0.99836120      -1.74703960      -0.66402392       0.99836120      -1.74703960     -13.98555681
H       -0.97880560       0.40075346       2.74164429        0      -0.30679014      -0.29165969       0.01069026       1.32886226      -1.15318751      -0.96100947       1.32886226      -1.15318751      -0.96100947     -13.96155402
H       -1.30093572      -1.16180351       1.96014595        0      -0.07320746       0.29542858       0.22908117       0.40818502      -0.08586682      -0.08410768       0.40818502      -0.08586682      -0.08410768     -13.99788154
H       -0.21944627       1.50204807      -2.28632947        0       0.08146001      -0.30493424       0.23454630       0.02349525       1.05715215      -1.04050934       0.02349525       1.05715215      -1.04050934     -13.78592416
H        1.49789538       0.97727851      -2.64662785        0      -0.20510911       0.16512429       0.34353587       1.08223350       0.60035861       0.01712454       1.08223350       0.60035861       0.01712454     -14.11700109
H        0.11166025      -0.15570887      -2.64915623        0       0.02431035       0.77328038      -0.31470647       0.95429772       1.04546322       0.96182730       0.95429772       1.04546322       0.96182730     -13.74327832
12
Properties=species:S:1:pos:R:3:molID:I:1:momenta:R:3:force_mace:R:3:forces:R:3:energies:R:1 Nmols=1 Comp=DMC(1) energy_mace=-589.4454837341455 energy=-589.4454837341455 stress="1.3996523057271535e-05 2.711140256817999e-06 9.239991942128032e-06 2.711140256817999e-06 1.4792670000716347e-05 3.7742472281131035e-06 9.239991942128032e-06 3.7742472281131035e-06 1.2537106943291329e-05" free_energy=-589.4454837341455 pbc="F F F"
C       -0.07776375      -0.13694637      -0.05591050        0       1.29585837      -1.02756620      -1.13404141      -1.70756477      -1.18858566      -0.90685460      -1.70756477      -1.18858566      -0.90685460     -59.28068666
O       -1.07344922      -0.71459065      -0.55933527        0       1.01672877      -1.03507237       1.66620375       3.61613999       2.30533846       1.89704579       3.61613999       2.30533846       1.89704579    -109.73244499
O        0.40398593      -0.26872009       1.20864186        0      -2.36237918       0.39157622      -0.40434909      -0.57392629       0.35193896      -1.14673875      -0.57392629       0.35193896      -1.14673875    -110.33527140
O        0.77919120       0.70985038      -0.73373668        0       1.64370402      -0.95237016       1.26825345      -2.59747368      -2.14707585       0.38243119      -2.59747368      -2.14707585       0.38243119    -110.44332875
C       -0.50343991      -0.53561818       2.28333344        0      -0.17869164      -0.38456756      -1.22597939       0.50371801       0.11698601       0.62198869       0.50371801       0.11698601       0.62198869     -58.15785952
C        0.46585396       0.90456705      -2.11811685        0      -1.34392650       2.07584091      -0.57008323       0.05055584       1.94516236      -0.63543020       0.05055584       1.94516236      -0.63543020     -58.04072113
H        0.15428102      -1.09084380       3.06131936        0      -0.15547006       0.30971161      -0.16561158      -1.39720590       1.10645103      -1.12476042      -1.39720590       1.10645103      -1.12476042     -13.90667938
H       -0.90765407       0.48592239       2.67092046        0       0.23065328       0.35264023       0.00321329       0.56340590      -1.95777792      -0.50918707       0.56340590      -1.95777792      -0.50918707     -13.95349784
H       -1.30431715      -1.19912777       1.89219968        0       0.12664706      -0.04663629       0.19334615       0.30444272       0.53628451       0.50976703       0.30444272       0.53628451       0.50976703     -13.99646306
H       -0.24276756       1.83632231      -2.27120402        0       0.19522505      -0.02756432      -0.01691160       0.75590687      -1.92269332       0.48480883       0.75590687      -1.92269332       0.48480883     -13.88261500
H        1.45466545       1.31544183      -2.32233369        0      -0.55619120       0.13815147       0.08111051      -0.02419465      -0.17758278      -1.36750619      -0.02419465      -0.17758278      -1.36750619     -13.66490561
H        0.15142092       0.04316446      -2.81087408        0       0.08784202       0.20585646       0.30484916       0.50619596       1.03155419       1.79443570       0.50619596       1.03155419       1.79443570     -14.05101040
12
Properties=species:S:1:pos:R:3:molID:I:1:momenta:R:3:force_mace:R:3:forces:R:3:energies:R:1 Nmols=1 Comp=DMC(1) energy_mace=-588.8391503127488 energy=-588.8391503127488 stress="-2.122410227276888e-06 -9.615927382640789e-06 1.2144429390452097e-06 -9.615927382640789e-06 6.940768712450831e-06 -6.7096844042207724e-06 1.2144429390452097e-06 -6.7096844042207724e-06 2.8541364568221666e-06" free_energy=-588.8391503127488 pbc="F F F"
C        0.00151694      -0.23933169      -0.10181496        0       1.37422383      -0.44823393       0.24111356       0.32396672       1.67514749       0.90755942       0.32396672       1.67514749       0.90755942     -59.23015452
O       -0.96686016      -0.76115449      -0.46286286        0       0.55696595      -1.25174081       0.78640189      -3.33976690      -2.08477565      -2.64366989      -3.33976690      -2.08477565      -2.64366989    -109.87989803
O        0.30264088      -0.23212705       1.15119466        0      -0.35070879       0.82625858      -0.97442807       3.47148626       0.29746455       2.24607007       3.47148626       0.29746455       2.24607007    -110.24290064
O        0.81427400       0.59197918      -0.67040152        0       0.37350510      -1.48860339      -0.51686949       0.03746529       2.69177774      -4.54629405       0.03746529       2.69177774      -4.54629405    -109.98232954
C       -0.49907968      -0.53354275       2.21083217        0      -0.36882621      -0.24214865      -0.09278975      -0.79295998      -0.99779734       2.44526708      -0.79295998      -0.99779734       2.44526708     -58.18183351
C        0.37746346       1.13974902      -2.12686226        0      -0.05891761       2.39658573       0.68096812      -0.54787700      -1.88486570       0.98911807      -0.54787700      -1.88486570       0.98911807     -57.70141177
H        0.16804374      -0.99180127       3.09093886        0       0.07902839      -0.09373327      -0.19303894      -1.39558180       0.77064499      -2.00893691      -1.39558180       0.77064499      -2.00893691     -13.80366941
H       -0.91335194       0.41257152       2.58549469        0      -0.65804125       0.14402474      -0.06520351      -0.01554128      -0.22173162       0.12599414      -0.01554128      -0.22173162       0.12599414     -13.90202734
H       -1.36184469      -1.19911994       1.95748457        0      -0.07451294       0.30017484       0.00245719       0.78264400       0.20943549       0.11703859       0.78264400       0.20943549       0.11703859     -13.96498734
H       -0.55846891       1.87321829      -2.14871767        0      -0.29394353      -0.32735952       0.38536303       2.29267011      -1.96039073       0.70706594       2.29267011      -1.96039073       0.70706594     -13.97221111
H        1.23880187       1.55679999      -2.70791181        0      -0.51216308      -0.13670448      -0.27476779      -0.59163619      -0.19945663       1.28376373      -0.59163619      -0.19945663       1.28376373     -14.09158401
H        0.16760925       0.11361200      -2.59967441        0      -0.06660985       0.32148016       0.02079377      -0.22486923       1.70454742       0.37702381      -0.22486923       1.70454742       0.37702381     -13.88614309
12
Properties=species:S:1:pos:R:3:molID:I:1:momenta:R:3:force_mace:R:3:forces:R:3:energies:R:1 Nmols=1 Comp=DMC(1) energy_mace=-589.2798217131007 energy=-589.2798217131007 stress="1.7031375541430754e-05 7.800813418452596e-06 -3.784361330802247e-06 7.800813418452596e-06 8.683977158411718e-06 1.641649716145749e-06 -3.784361330802247e-06 1.641649716145749e-06 1.1745358108909715e-05" free_energy=-589.2798217131007 pbc="F F F"
C        0.01354441      -0.23902778      -0.12845700        0      -0.91742567      -0.23798510      -1.12396131      -1.54609237      -0.33747150       0.76529110      -1.54609237      -0.33747150       0.76529110     -59.24720614
O       -0.97911759      -0.88195940      -0.47043204        0       0.15733589      -1.33281423      -0.46025550       2.37412989       1.57722487       0.22212457       2.37412989       1.57722487       0.22212457    -109.84549581
O        0.38704861      -0.16000341       1.19119214        0       2.23375443       1.53583606       1.31192372      -0.88635203      -0.00251357      -0.83314900      -0.88635203      -0.00251357      -0.83314900    -110.25320456
O        0.84643949       0.58102283      -0.83520055        0       0.68243660      -0.09164263      -3.75119668       0.68824713      -1.25866339       1.21916494       0.68824713      -1.25866339       1.21916494    -110.38756291
C       -0.56970080      -0.52373334       2.22037742        0      -0.54794093      -0.28417306      -0.02882560       1.59641037      -3.19845589      -0.74857792       1.59641037      -3.19845589      -0.74857792     -58.11487769
C        0.34516451       1.20276161      -1.97092087        0      -0.77125647      -0.17170144       2.37152960      -3.32409794      -0.39560683      -0.83400262      -3.32409794      -0.39560683      -0.83400262     -58.13031962
H        0.18195052      -1.02521654       2.96497190        0      -0.20885988      -0.14054526       0.32208521      -1.99651800       0.75743799      -0.97481613      -1.99651800       0.75743799      -0.97481613     -13.80817614
H       -1.04877461       0.31285415       2.63747629        0      -0.14026885       0.14525611       0.21240460      -0.34499144       1.07023951       0.37930356      -0.34499144       1.07023951       0.37930356     -14.10609418
H       -1.39601929      -1.26947879       1.82761139        0       0.27977866      -0.21261180      -0.03373283       1.80017131       1.24861681       0.63371727       1.80017131       1.24861681       0.63371727     -13.91608981
H       -0.59055516       1.80303508      -1.48794070        0      -0.06847659       0.31676829       0.49561417       1.92444440      -0.65301849      -2.12778102       1.92444440      -0.65301849      -2.12778102     -13.63428293
H        1.05367938       1.78556067      -2.62808446        0      -0.26052474       0.32836605       0.74812111      -0.62104691      -0.47049227       1.43598269      -0.62104691      -0.47049227       1.43598269     -14.07262506
H       -0.07372499       0.33432041      -2.64919774        0      -0.43855245       0.14524701      -0.06370649       0.33569560       1.66270275       0.86274255       0.33569560       1.66270275       0.86274255     -13.76388686
12
Properties=species:S:1:pos:R:3:molID:I:1:momenta:R:3:force_mace:R:3:forces:R:3:energies:R:1 Nmols=1 Comp=DMC(1) energy_mace=-588.7639873135664 energy=-588.7639873135664 stress="1.2495689500356939e-05 1.0834461234766575e-05 -4.805209472068369e-07 1.0834461234766575e-05 7.935817922932692e-06 4.108425443124161e-06 -4.805209472068369e-07 4.108425443124161e-06 1.5088255003786533e-05" free_energy=-588.7639873135664 pbc="F F F"
C        0.03725409      -0.23667315      -0.14760374        0       2.05806304      -0.17505444       1.13744763       0.96552954      -0.47342547       2.07464104       0.96552954      -0.47342547       2.07464104     -59.06219480
O       -0.90857153      -0.91705993      -0.48645253        0       1.88283988      -0.11812054      -0.10890967       2.04766148       1.76542924       0.57014880       2.04766148       1.76542924       0.57014880    -109.99657183
O        0.43863302      -0.03679678       1.23004627        0      -0.60258570       1.98690479      -0.37839418      -3.03373508      -1.38101070      -0.70295890      -3.03373508      -1.38101070      -0.70295890    -109.89368080
O        0.91408989       0.46372753      -0.98199606        0       0.77652245      -2.73057769      -0.60860069      -2.48752809      -2.18244699       2.34217271      -2.48752809      -2.18244699       2.34217271    -110.50609603
C       -0.59503737      -0.53362428       2.23199214        0       0.52034220      -0.80193892      -0.78040743       1.19381891      -3.85247908      -2.61865102       1.19381891      -3.85247908      -2.61865102     -58.02552670
C        0.16076864       1.22381626      -1.84742982        0      -2.74349465       1.61036780       0.98048712       0.03317567       3.59354867      -0.39269481       0.03317567       3.59354867      -0.39269481     -58.01289859
H       -0.21895058      -1.17327978       3.08395702        0      -0.10742061      -0.27473176       0.35066165       0.70977727       1.03290662      -0.97507521       0.70977727       1.03290662      -0.97507521     -13.96610814
H       -1.23847454       0.16271053       2.64848839        0      -0.40048147       0.13680451      -0.11781848      -0.77856069       1.75485105       0.08852541      -0.77856069       1.75485105       0.08852541     -14.14916777
H       -1.22262599      -1.36307455       1.67555515        0      -0.12195888      -0.03478294      -0.48470327       0.86146072       1.78626858       0.83168645       0.86146072       1.78626858       0.83168645     -13.77273070
H       -0.53917647       2.01161989      -1.35100028        0      -0.64060739       0.29027406       0.34689028      -0.05630425      -1.86209721      -0.14591113      -0.05630425      -1.86209721      -0.14591113     -13.73815869
H        0.93007999       2.01279930      -2.04624565        0      -0.27809005      -0.06342406      -0.04395801      -0.19842397      -0.79849089      -1.68151550      -0.19842397      -0.79849089      -1.68151550     -13.57899934
H       -0.37209794       0.65547885      -2.64609833        0      -0.34312882       0.17427918      -0.29269495       0.74312847       0.61694619       0.60963216       0.74312847       0.61694619       0.60963216     -14.06185392
12
Properties=species:S:1:pos:R:3:molID:I:1:momenta:R:3:force_mace:R:3:forces:R:3:energies:R:1 Nmols=1 Comp=DMC(1) energy_mace=-588.362864258267 energy=-588.362864258267 stress="-2.095517047616702e-06 -8.953005063331956e-06 6.695962104849581e-06 -8.953005063331956e-06 -2.2706003634666733e-06 -6.50351459568663e-06 6.695962104849581e-06 -6.50351459568663e-06 -2.422727015540899e-06" free_energy=-588.362864258267 pbc="F F F"
C        0.19455212      -0.27898623      -0.03263685        0       1.36144376      -0.98967563       0.86221237      -1.82460003       0.05979720      -2.75831856      -1.82460003       0.05979720      -2.75831856     -59.29130037
O       -0.75074912      -0.86442110      -0.48326430        0       2.61077356       1.43971356       0.06709014      -1.31967356      -1.51788345       0.12373192      -1.31967356      -1.51788345       0.12373192    -109.61229240
O        0.33283598       0.01788148       1.20118750        0      -1.45819494       0.11757969       0.12770209       2.04034233       0.02874307       2.01805989       2.04034233       0.02874307       2.01805989    -110.51396103
O        0.90926406       0.29726444      -0.97286347        0      -0.65660766      -1.21225143       0.31281923       0.20390085       3.79233072      -1.55950213       0.20390085       3.79233072      -1.55950213    -109.69796630
C       -0.59158163      -0.59980666       2.09476017        0      -0.22757608       0.07433026      -2.61896032       0.91623742      -1.76587394      -0.92643766       0.91623742      -1.76587394      -0.92643766     -58.08602757
C       -0.03001833       1.40521623      -1.75511431        0      -0.63983480       1.18452790       0.91532063       0.74368150      -3.93846524      -0.17552033       0.74368150      -3.93846524      -0.17552033     -57.66442414
H        0.00884351      -1.05601788       2.94122835        0       0.38734035       0.15201356      -0.22458157      -1.15608682       0.51262799      -0.98295953      -1.15608682       0.51262799      -0.98295953     -14.02510214
H       -1.19309604       0.21006552       2.28320485        0       0.05017755       0.21041409       0.00620190      -1.62088354       1.74196422       1.83050566      -1.62088354       1.74196422       1.83050566     -13.76344410
H       -1.26562164      -1.27315208       1.50133406        0      -0.20513580      -0.57484933      -0.23293551       0.84248250      -0.26431424       0.99133939       0.84248250      -0.26431424       0.99133939     -13.83021093
H       -0.89771209       1.57259771      -1.08513284        0      -0.62158381      -0.34778576       0.66501689       1.30740442       0.70906977      -0.31409306       1.30740442       0.70906977      -0.31409306     -14.06422747
H        0.64694896       1.96256826      -2.38884869        0      -0.32801485       0.15229617       0.05792024       0.33304216       1.18430272       1.35053793       0.33304216       1.18430272       1.35053793     -14.01581198
H       -0.41048631       0.80478234      -2.59168254        0      -0.27278729      -0.20631308       0.06219391      -0.46584723      -0.54229883       0.40265648      -0.46584723      -0.54229883       0.40265648     -13.79809584
12
Properties=species:S:1:pos:R:3:molID:I:1:momenta:R:3:force_mace:R:3:forces:R:3:energies:R:1 Nmols=1 Comp=DMC(1) energy_mace=-588.5091877536216 energy=-588.5091877536216 stress="-9.805701235822515e-06 -9.44417354378135e-06 8.442991488613189e-06 -9.44417354378135e-06 -1.5687928779019419e-06 -1.3929097527650559e-06 8.442991488613189e-06 -1.3929097527650559e-06 -1.5395756755354654e-05" free_energy=-588.5091877536216 pbc="F F F"
C        0.26858926      -0.33208883      -0.03532603        0       0.62073936      -0.12272897      -0.66036019      -1.98012463       2.04876890      -1.97649404      -1.98012463       2.04876890      -1.97649404     -58.97934238
O       -0.68058164      -0.88540148      -0.50508137        0      -0.12975231      -2.25168899      -0.93640797      -1.42170357      -2.59541825       0.06473075      -1.42170357      -2.59541825       0.06473075    -109.60222768
O        0.30352896       0.04237438       1.22867839        0       0.51808173       0.43405700       0.36471877       2.01943054       0.40868151      -1.25275863       2.01943054       0.40868151      -1.25275863    -110.67461687
O        0.88465325       0.34542721      -1.00450100        0      -0.25635266       2.40119708      -1.31824085       1.19745297       2.64587389      -0.98590797       1.19745297       2.64587389      -0.98590797    -109.77885618
C       -0.62947272      -0.61428635       1.95466366        0      -0.61109840       0.72980782      -0.21394063       1.58637239      -2.50412461       3.32900399       1.58637239      -2.50412461       3.32900399     -58.05284307
C       -0.07787804       1.38839636      -1.67302174        0       0.12817780      -0.61334499       1.03032542       2.54338630       0.21184026       3.53327724       2.54338630       0.21184026       3.53327724     -57.93483315
H        0.00411451      -0.98957049       2.80783333        0       0.11216476      -0.31927842       0.62812157      -0.58470972      -0.05894909       0.13516538      -0.58470972      -0.05894909       0.13516538     -13.60523707
H       -1.28740014       0.04491699       2.39700975        0      -0.19646305      -0.65201750      -0.08876156      -1.87337791       1.31020003       0.55470765      -1.87337791       1.31020003       0.55470765     -13.93759032
H       -1.07371825      -1.53266098       1.58097320        0       0.06864562      -0.37065651      -0.14928555      -0.26069901       0.31835397      -0.76614363      -0.26069901       0.31835397      -0.76614363     -13.96094097
H       -0.73832973       1.66582539      -0.86608081        0       0.18520979       0.44766401       0.68907848      -0.62836420      -0.16951517       0.41864531      -0.62836420      -0.16951517       0.41864531     -13.83605804
H        0.51229367       2.33063777      -1.77127773        0      -0.26696693       0.05340526       0.76189044      -0.09335228      -1.12112983      -1.08744316      -0.09335228      -1.12112983      -1.08744316     -14.03457931
H       -0.62332209       0.85375538      -2.36665063        0      -0.17238571       0.26358421      -0.10713793      -0.50431088      -0.49458162      -1.96678289      -0.50431088      -0.49458162      -1.96678289     -14.11206270
12
Properties=species:S:1:pos:R:3:molID:I:1:momenta:R:3:force_mace:R:3:forces:R:3:energies:R:1 Nmols=1 Comp=DMC(1) energy_mace=-588.7023437937081 energy=-588.7023437937081 stress="6.677064801965597e-06 9.283383182154835e-06 -6.818538641843609e-06 9.283383182154835e-06 -4.726395319937145e-06 1.1252389592843058e-06 -6.818538641843609e-06 1.1252389592843058e-06 4.944002990373693e-06" free_energy=-588.7023437937081 pbc="F F F"
C        0.18454570      -0.26350174      -0.15411266        0      -2.22469346       1.19454903      -1.53021946       0.05472869      -0.17954219       0.59360253       0.05472869      -0.17954219       0.59360253     -58.89101032
O       -0.68854497      -1.02300304      -0.53548419        0       0.86629196      -1.35510775       0.06315961       1.91443236       1.40351044       0.95014523       1.91443236       1.40351044       0.95014523    -109.95334801
O        0.36476175       0.04406553       1.23918582        0       0.43899977      -0.37916591      -0.83325037      -1.71325782      -1.43562379      -1.83753560      -1.71325782      -1.43562379      -1.83753560    -110.01996488
O        0.89327286       0.48678654      -1.10060423        0       0.41946669       1.90134181      -0.69810170      -1.02041860      -2.28106326       2.45738273      -1.02041860      -2.28106326       2.45738273    -110.47023715
C       -0.63942690      -0.71741553       2.03627938        0      -0.79067278      -2.01015910       0.91108794      -1.05584059       2.95455816      -2.91848412      -1.05584059       2.95455816      -2.91848412     -58.09066721
C       -0.04973647       1.40041186      -1.47039910        0       0.48807102       0.83164529       2.34747286       2.81284578       3.52195838      -2.30843059       2.81284578       3.52195838      -2.30843059     -57.98790234
H       -0.34393344      -0.98286998       2.95875167        0      -0.05743608      -0.01781019       0.65361378       1.82735011      -0.81478056       2.89826318       1.82735011      -0.81478056       2.89826318     -14.06490540
H       -1.64177272      -0.22417246       2.20164277        0       0.53882369      -0.22078631      -0.56278008       1.07083444       0.43899389      -0.52502852       1.07083444       0.43899389      -0.52502852     -13.93824229
H       -0.83851034      -1.49904695       1.39647351        0       0.17111897      -0.12025406      -0.30317979      -0.63438888      -2.42709450      -0.47587114      -0.63438888      -2.42709450      -0.47587114     -13.76190219
H       -0.68176855       1.65534569      -0.67685698        0      -0.30345683      -0.33551342       0.04347180      -1.39917253       0.68509549       0.69531762      -1.39917253       0.68509549       0.69531762     -13.92434084
H        0.58832666       2.34282374      -1.75894521        0       0.15566755       0.13364228      -0.50175900      -0.94556465      -0.95512284       0.79891005      -0.94556465      -0.95512284       0.79891005     -13.62325933
H       -0.49619041       1.25340662      -2.43008979        0       0.29781949       0.37761832       0.41048441      -0.91154831      -0.91088921      -0.32827136      -0.91154831      -0.91088921      -0.32827136     -13.97656385
12
Properties=species:S:1:pos:R:3:molID:I:1:momenta:R:3:force_mace:R:3:forces:R:3:energies:R:1 Nmols=1 Comp=DMC(1) energy_mace=-588.2719659735715 energy=-588.2719659735715 stress="4.154675172242305e-06 4.536555371158728e-06 -1.8747078081572728e-06 4.536555371158728e-06 7.224865189150817e-06 -3.5202015555010323e-06 -1.8747078081572728e-06 -3.5202015555010323e-06 4.088869587327122e-08" free_energy=-588.2719659735715 pbc="F F F"
C        0.08212470      -0.17320020      -0.19301340        0       0.47851541       0.85455621       0.38041493       2.70564225      -2.09084772       1.74537090       2.70564225      -2.09084772       1.74537090     -58.99630876
O       -0.60030682      -1.09569061      -0.54093446        0       1.65928257      -0.96535181      -0.39439312      -0.49389245       0.62778946      -0.10977769      -0.49389245       0.62778946      -0.10977769    -109.95886978
O        0.34655238      -0.00960388       1.17849131        0      -1.20248092      -1.00859622      -1.16117936      -1.11379904      -1.54502430      -0.43682182      -1.11379904      -1.54502430      -0.43682182    -109.87278686
O        0.87353506       0.52199172      -1.06613313        0      -1.38195140       0.10019833       1.48610289      -2.09893207       0.93052933       2.00694952      -2.09893207       0.93052933       2.00694952    -110.44157241
C       -0.62759992      -0.85944578       2.04849354        0       0.46700673      -1.14922998      -1.13830578      -1.33695308       2.95477005      -7.29190163      -1.33695308       2.95477005      -7.29190163     -57.87884829
C       -0.00590092       1.57383064      -1.37915640        0      -0.72439754       2.23055618      -0.70906095       0.02657165      -0.62247493      -5.05544648       0.02657165      -0.62247493      -5.05544648     -57.81039492
H       -0.42351762      -0.87118372       2.99936968        0      -0.00363387       0.27724702       0.15338729       1.69035888       0.42627521       4.99220023       1.69035888       0.42627521       4.99220023     -14.05257772
H       -1.49527133      -0.19266474       1.78682807        0       0.32808686      -0.50152909       0.09083230       0.01400212      -1.25967616       0.93562809       0.01400212      -1.25967616       0.93562809     -13.78180997
H       -0.78770360      -1.85096898       1.66284362        0       0.04396527      -0.47553433       0.74046907       0.25681682      -0.11215213      -0.49546099       0.25681682      -0.11215213      -0.49546099     -14.06808557
H       -0.87481377       1.71249167      -0.83593399        0       0.18088829       0.32985198      -0.19470048      -0.97076643       0.79354287       2.25919611      -0.97076643       0.79354287       2.25919611     -13.86936591
H        0.48705138       2.53211985      -1.68849737        0       0.10825395       0.56586495       0.32415373      -0.28506945      -1.20432262       0.50941519      -0.28506945      -1.20432262       0.50941519     -14.07236034
H       -0.64480907       1.14247998      -2.33509192        0       0.04646466      -0.25803322       0.42227948       1.60602082       1.10159093       0.94064858       1.60602082       1.10159093       0.94064858     -13.46898544
12
Properties=species:S:1:pos:R:3:molID:I:1:momenta:R:3:force_mace:R:3:forces:R:3:energies:R:1 Nmols=1 Comp=DMC(1) energy_mace=-588.7242963392857 energy=-588.7242963392857 stress="4.49698316815778e-06 -3.6376078072769084e-06 -2.5941327562350746e-06 -3.6376078072769084e-06 -5.078514879841951e-06 -8.721298967974767e-07 -2.5941327562350746e-06 -8.721298967974767e-07 -1.3849150273963863e-05" free_energy=-588.7242963392857 pbc="F F F"
C        0.13891276      -0.23780104      -0.11652520        0       0.62301242      -2.19389016       0.82773810       0.11470746      -0.04213170      -2.72785500       0.11470746      -0.04213170      -2.72785500     -59.32522199
O       -0.52033133      -1.10126950      -0.56084871        0       1.04588652       0.35213821      -0.49309294      -1.88480066      -2.45022801      -1.46012264      -1.88480066      -2.45022801      -1.46012264    -109.67655877
O        0.24828778      -0.09900517       1.13993296        0      -1.49087332      -1.46588805       0.45119204       0.73301855       0.64735385       3.14349555       0.73301855       0.64735385       3.14349555    -110.51598092
O        0.75733976       0.59266176      -0.97295167        0      -2.38591363       2.10973003       1.97947384       0.88368265       1.35494179       0.67091499       0.88368265       1.35494179       0.67091499    -110.13042525
C       -0.56314835      -0.93488178       1.95376452        0       0.35102051      -0.64064512      -0.59752223      -3.36392821       1.81977589      -1.07010372      -3.36392821       1.81977589      -1.07010372     -57.95766586
C       -0.02255385       1.73648019      -1.45556363        0      -0.21326658       0.91491822      -0.04767057      -0.30787311      -1.72146986       0.97637542      -0.30787311      -1.72146986       0.97637542     -58.01738128
H       -0.25554795      -0.59365529       2.86848806        0       0.07544599       0.36810467      -0.79303294       0.19135240       0.66244968       2.76051332       0.19135240       0.66244968       2.76051332     -13.78212576
H       -1.78377481      -0.68647169       1.81026464        0       0.27870914      -0.50571593       0.09886963       3.00829818      -0.38596225       0.07816840       3.00829818      -0.38596225       0.07816840     -13.63165410
H       -0.49497041      -1.97658026       1.93197444        0       0.62891750       0.10123416      -0.27699420       0.52509193      -1.41071990      -0.92976934       0.52509193      -1.41071990      -0.92976934     -14.05559707
H       -0.61566469       2.09699841      -0.54153783        0       0.62316084       0.17054768      -0.27251992      -0.21599470      -0.66738508      -1.53368189      -0.21599470      -0.66738508      -1.53368189     -13.83740941
H        0.72133105       2.53028273      -1.51968532        0       0.54301087       0.21693294      -0.22437365      -0.09536797      -0.18693081      -1.23846915      -0.09536797      -0.18693081      -1.23846915     -13.95952333
H       -0.53721941       1.17957110      -2.34319300        0      -0.07911027       0.57253335      -0.65206716       0.41181348       2.38030640       1.33053406       0.41181348       2.38030640       1.33053406     -13.83475261
12
Properties=species:S:1:pos:R:3:molID:I:1:momenta:R:3:force_mace:R:3:forces:R:3:energies:R:1 Nmols=1 Comp=DMC(1) energy_mace=-588.0803583592105 energy=-588.0803583592105 stress="3.339543974781396e-06 -1.1404827642112984e-05 4.0810006103728375e-06 -1.1404827642112984e-05 -4.522163500849626e-06 6.140971121893682e-06 4.0810006103728375e-06 6.140971121893682e-06 1.363393107261986e-06" free_energy=-588.0803583592105 pbc="F F F"
C        0.17784080      -0.32688573      -0.11000269        0       0.44561850      -0.29546483      -0.56792972      -2.92389851       0.91970714      -1.82863545      -2.92389851       0.91970714      -1.82863545     -59.19119690
O       -0.50300401      -1.15368391      -0.65724833        0      -0.24068017      -1.96642957      -1.57079287       0.54296126      -0.75776737       0.64135063       0.54296126      -0.75776737       0.64135063    -109.77631013
O        0.19777631      -0.13134336       1.20516379        0      -0.13931408       0.45756665       0.25275050       1.46147378       2.67576086      -2.08685910       1.46147378       2.67576086      -2.08685910    -110.69682331
O        0.62853280       0.69358857      -0.86900748        0      -1.67130298       1.27200729       0.97280399       1.44649073       0.27736085      -0.88895205       1.44649073       0.27736085      -0.88895205    -110.09618719
C       -0.49662533      -0.98653536       1.93952234        0       1.47950373      -0.48313064       1.67154579      -2.26327917      -1.27448769       2.52892588      -2.26327917      -1.27448769       2.52892588     -58.10310539
C        0.02884727       1.80614501      -1.48970868        0       1.45556998       1.38428278       0.02937214      -3.96836192       0.92483564       2.89371694      -3.96836192       0.92483564       2.89371694     -57.83767508
H       -0.35153792      -0.49301053       2.93893774        0      -0.78866342      -0.73941680      -0.15765547      -0.37296239      -1.28874555      -0.21382184      -0.37296239      -1.28874555      -0.21382184     -13.65747279
H       -1.70832539      -1.06067944       1.79084653        0      -0.20349114      -0.20100915      -0.09390963       2.84543702       0.14514745      -0.25117212       2.84543702       0.14514745      -0.25117212     -13.74249571
H        0.06255086      -1.92004210       1.76209526        0       0.13464879       0.24435243       0.13496611      -1.07259442      -0.40199254       0.79241417      -1.07259442      -0.40199254       0.79241417     -13.74358107
H       -0.57636116       2.42875182      -0.64543278        0      -0.12342189       0.28603489      -0.45327144       1.54937190      -1.26657988      -1.81477090       1.54937190      -1.26657988      -1.81477090     -13.76870995
H        0.79923466       2.28170932      -1.90669491        0       0.08763904      -0.23282783      -0.21506936       3.07491446       2.02106989      -0.48722653       3.07491446       2.02106989      -0.48722653     -13.63557475
H       -0.57882671       1.98542696      -2.40018988        0      -0.43610636       0.27403479      -0.00281004      -0.31955272      -1.97430880       0.71503038      -0.31955272      -1.97430880       0.71503038     -13.83122610
12
Properties=species:S:1:pos:R:3:molID:I:1:momenta:R:3:force_mace:R:3:forces:R:3:energies:R:1 Nmols=1 Comp=DMC(1) energy_mace=-588.3131465548207 energy=-588.3131465548207 stress="-1.1564900219316731e-06 5.357955879480321e-07 -3.045008923767987e-06 5.357955879480321e-07 1.0446876528993776e-05 -5.885843131530099e-09 -3.045008923767987e-06 -5.885843131530099e-09 1.4910157356253429e-05" free_energy=-588.3131465548207 pbc="F F F"
C        0.06959125      -0.30530564      -0.19304417        0      -2.86690798       0.63278705      -1.49301705      -0.43315297       1.50135995       1.54209777      -0.43315297       1.50135995       1.54209777     -59.23005682
O       -0.43503051      -1.23802245      -0.72560977        0       1.85888254      -1.01266761      -0.47537069       0.06090850      -0.19772648       0.38946621       0.06090850      -0.19772648       0.38946621    -109.99824958
O        0.20767865      -0.05684522       1.17245336        0       0.18657735       0.59219263      -0.92969602      -0.52747573      -2.17028527       0.74951116      -0.52747573      -2.17028527       0.74951116    -109.98434018
O        0.59309702       0.77533588      -0.82182388        0      -0.04208340       1.19306241       1.08014820       1.33814510      -0.17291894       1.55776066       1.33814510      -0.17291894       1.55776066    -110.05416769
C       -0.46845011      -1.10055224       2.08413162        0       0.40719682      -1.86723995       2.02320428      -1.26024933      -0.87720336      -1.89237127      -1.26024933      -0.87720336      -1.89237127     -57.81735793
C        0.06255425       1.91772769      -1.49981515        0       0.12122564       0.97066450      -0.29291352      -3.87776801      -1.83827075       1.72955923      -3.87776801      -1.83827075       1.72955923     -58.02579098
H       -0.88597321      -1.00247282       3.13880411        0      -0.09715566       0.03917391      -0.39783673       0.87711766       1.49665665      -1.71281548       0.87711766       1.49665665      -1.71281548     -13.98261173
H       -1.29068482      -1.31761380       1.37397480        0       0.00409193      -0.27477632      -0.58362465      -0.34241676      -0.02202541       1.09739288      -0.34241676      -0.02202541       1.09739288     -13.75910341
H       -0.02379575      -2.11188712       2.17203053        0      -0.04108882       0.14998068       0.41141159       1.05394659       0.94604595      -0.53360315       1.05394659       0.94604595      -0.53360315     -13.94281093
H       -0.51828267       2.71500975      -0.79982482        0       0.28705741       0.37852945       0.17829878       1.51346078      -1.94220242      -1.39502932       1.51346078      -1.94220242      -1.39502932     -13.88451650
H        0.95030371       2.22150115      -1.91453208        0      -0.35983581      -0.08444054       0.06522926       1.17107223       1.40711707      -1.32644131       1.17107223       1.40711707      -1.32644131     -13.87532532
H       -0.67439947       1.32416818      -2.11744088        0       0.54203996      -0.71726620       0.41416655       0.42641193       1.86945301      -0.20552739       0.42641193       1.86945301      -0.20552739     -13.75881548
12
Properties=species:S:1:pos:R:3:molID:I:1:momenta:R:3:force_mace:R:3:forces:R:3:energies:R:1 Nmols=1 Comp=DMC(1) energy_mace=-588.2993078156874 energy=-588.2993078156874 stress="5.036892382637354e-06 3.76367087907211e-06 -5.397294258075481e-06 3.76367087907211e-06 2.499114936928286e-05 7.205499480469643e-06 -5.397294258075481e-06 7.205499480469643e-06 1.7554117506501923e-05" free_energy=-588.2993078156874 pbc="F F F"
C       -0.08695754      -0.19958293      -0.21442638        0      -0.42219552       0.89228697       0.07715000       2.39745362      -3.22166301       0.16381061       2.39745362      -3.22166301       0.16381061     -58.94633324
O       -0.32305052      -1.29953658      -0.76655799        0       1.57510051      -0.15450553      -0.53693518      -0.22903040       4.00430029       1.78547327      -0.22903040       4.00430029       1.78547327    -109.69260702
O        0.15665619      -0.10560446       1.15467740        0      -1.96047849      -1.99363383      -0.09473558      -2.31556827      -1.87465269      -0.47293987      -2.31556827      -1.87465269      -0.47293987    -109.93868219
O        0.59863619       0.86901231      -0.74143090        0       0.09282261       1.49802343       1.43096232       0.48351105      -1.13883694       1.26157309       0.48351105      -1.13883694       1.26157309    -110.23657005
C       -0.46745045      -1.20818566       2.06253795        0       0.77175364      -0.09155687      -1.12375882       0.74758042       2.60144914      -0.47720445       0.74758042       2.60144914      -0.47720445     -57.98250909
C        0.07024089       1.90499691      -1.47295346        0       1.17411971      -0.42861108       0.49689905      -0.16526345       1.37951238       0.69727780      -0.16526345       1.37951238       0.69727780     -58.12277247
H       -1.05168722      -0.54674408       2.87293185        0       0.25615646       0.30060264      -0.63728741       1.44597488      -1.84623272      -1.60811619       1.44597488      -1.84623272      -1.60811619     -13.91436355
H       -1.16278018      -1.82202046       1.46148357        0      -0.28795977      -0.88243423       0.07451523       0.50545729       0.50545166       0.34378009       0.50545729       0.50545166       0.34378009     -14.10578286
H        0.44306028      -1.79162493       2.39650236        0       0.19465489       0.77698623       0.19414199      -1.42466618       0.71614163      -0.03017951      -1.42466618       0.71614163      -0.03017951     -14.07776383
H       -0.25656458       2.74804890      -0.69432259        0      -0.43660182       0.16320824       0.30470040      -0.30064519      -1.77727113      -1.82181589      -0.30064519      -1.77727113      -1.82181589     -13.78951815
H        0.79312323       2.42977704      -2.11310679        0      -0.54251528      -0.12929255       0.06718034       0.29663332      -0.37829825       0.37880444       0.29663332      -0.37829825       0.37880444     -13.94332003
H       -0.45459624       1.21437065      -2.10423201        0      -0.41485694       0.04892658      -0.25283236      -1.44143710       1.03009965      -0.22046337      -1.44143710       1.03009965      -0.22046337     -13.54908533
12
Properties=species:S:1:pos:R:3:molID:I:1:momenta:R:3:force_mace:R:3:forces:R:3:energies:R:1 Nmols=1 Comp=DMC(1) energy_mace=-587.9438794133184 energy=-587.9438794133184 stress="8.283515716984896e-06 -1.217791078268973e-05 -1.7789512036177936e-06 -1.217791078268973e-05 -1.1161328405493001e-05 -9.43026986815369e-06 -1.7789512036177936e-06 -9.43026986815369e-06 -8.997648447200802e-06" free_energy=-587.9438794133184 pbc="F F F"
C       -0.02113735      -0.23092731      -0.22099874        0       1.88844203      -0.42576337      -0.07783994       2.45413604       3.20486378       2.43906628       2.45413604       3.20486378       2.43906628     -58.93620131
O       -0.24975842      -1.21564207      -0.74729648        0       0.88092760       1.37238138       0.39584660      -1.59624210      -3.62488748      -3.68589257      -1.59624210      -3.62488748      -3.68589257    -109.93904687
O        0.00321145      -0.24176825       1.13045690        0      -2.46268063      -1.85449544      -1.12976588       1.33710059       3.01092795      -1.84016444       1.33710059       3.01092795      -1.84016444    -110.44484833
O        0.61960505       0.92212769      -0.60258608        0       0.04688557       0.46291279       2.02739987      -0.81867606      -0.70349324      -0.63114038      -0.81867606      -0.70349324      -0.63114038    -110.21031368
C       -0.41547156      -1.18672218       1.92023155        0       0.84563255       1.05145654      -0.71729019       0.58045223       3.58308308       6.02630781       0.58045223       3.58308308       6.02630781     -57.98763848
C        0.06281682       1.87623338      -1.48650002        0      -0.78929228      -0.38273624      -1.35146089      -0.97181803       1.51373544      -0.00484703      -0.97181803       1.51373544      -0.00484703     -58.05782431
H       -1.14606756      -0.39354578       2.43554191        0      -0.35918874      -0.20754616      -0.11023937       1.05066847      -2.57559269      -0.32367741       1.05066847      -2.57559269      -0.32367741     -13.16282149
H       -0.82486873      -2.07471421       1.70666928        0       0.52452046      -0.41593269      -0.06076942      -1.49933462      -2.75915820      -1.65795786      -1.49933462      -2.75915820      -1.65795786     -14.03874009
H        0.46526232      -1.36514792       2.69150329        0      -0.17254785       0.10120618       0.27707085      -1.55747790       0.08654076      -1.10855812      -1.55747790       0.08654076      -1.10855812     -13.64535724
H       -0.65204449       2.49899254      -0.89255539        0      -0.32228321       0.15499080      -0.07733374       1.51134187       0.34276797      -0.16479499       1.51134187       0.34276797      -0.16479499     -13.68480845
H        0.85592479       2.37424363      -2.11863414        0      -0.13128653      -0.22862376       0.66378849      -0.96074978      -0.49576338       1.31638057      -0.96074978      -0.49576338       1.31638057     -14.03830538
H       -0.79776683       1.69644475      -2.11070583        0       0.05087103       0.37214998       0.16059362       0.47059930      -1.58302400      -0.36472186       0.47059930      -1.58302400      -0.36472186     -13.79797377
12
Properties=species:S:1:pos:R:3:molID:I:1:momenta:R:3:force_mace:R:3:forces:R:3:energies:R:1 Nmols=1 Comp=DMC(1) energy_mace=-588.1827948128047 energy=-588.1827948128047 stress="1.7533842056896087e-05 1.1260945020573586e-06 7.361476414438515e-06 1.1260945020573586e-06 -6.805077108065367e-06 2.7187370965146324e-06 7.361476414438515e-06 2.7187370965146324e-06 -4.422826576373019e-06" free_energy=-588.1827948128047 pbc="F F F"
C        0.17275642      -0.21245773      -0.17801912        0       1.78652613      -1.13152000       0.19039253      -3.50671842      -5.11204783      -2.64554089      -3.50671842      -5.11204783      -2.64554089     -59.32993453
O       -0.22498519      -1.19695195      -0.80168757        0       0.27731402       0.74225233      -1.91296658       1.19485196       0.91838073      -0.83532608       1.19485196       0.91838073      -0.83532608    -109.42791373
O       -0.06619218      -0.22969649       1.04554275        0      -0.30921746       2.05786742       0.04453792      -0.05418282       3.07661146       5.57703019      -0.05418282       3.07661146       5.57703019    -110.07849663
O        0.56010302       0.92786831      -0.52838408        0      -1.30275966       0.90191110       0.51768004       0.68444066       2.86586646      -1.76453438       0.68444066       2.86586646      -1.76453438    -110.23551860
C       -0.42493219      -1.20090700       2.00168842        0      -0.60036379      -1.94569522       1.14592064      -0.44942469      -0.60054100       0.80741667      -0.44942469      -0.60054100       0.80741667     -58.07111460
C       -0.01764441       1.86197588      -1.51752577        0      -0.19774856       0.12572639       0.09231062       1.12673086       1.43558714       0.72123936       1.12673086       1.43558714       0.72123936     -57.88228799
H       -1.55647623      -1.19264121       2.42076631        0      -0.59066606      -1.01884533       0.13845209       2.54530685       0.59102845      -0.97578319       2.54530685       0.59102845      -0.97578319     -13.84539526
H       -0.33063194      -2.09107466       1.41381225        0       0.53925421       0.61728586      -0.20343396       0.10537014      -1.05399382       0.46449705       0.10537014      -1.05399382       0.46449705     -13.83709420
H        0.37077860      -1.06903539       2.83517723        0       0.12620870       0.32868055       0.14205803      -1.69324585      -0.51119824      -1.25246257      -1.69324585      -0.51119824      -1.25246257     -13.88769685
H       -0.45828000       2.70996172      -0.90825413        0       0.16276925       0.36239455       0.20486124      -0.30231423      -1.09729634      -0.48672212      -0.30231423      -1.09729634      -0.48672212     -13.87034715
H        1.00194963       2.34357052      -1.72064345        0      -0.62470613      -0.25104898      -0.06849050      -1.59252778      -0.66857518      -1.21167601      -1.59252778      -0.66857518      -1.21167601     -13.66997918
H       -0.78004643       1.48790424      -2.31000607        0       0.73338936      -0.78900867      -0.29132207       1.94171334       0.15617815       1.60186197       1.94171334       0.15617815       1.60186197     -14.04701610
12
Properties=species:S:1:pos:R:3:molID:I:1:momenta:R:3:force_mace:R:3:forces:R:3:energies:R:1 Nmols=1 Comp=DMC(1) energy_mace=-587.7366952290245 energy=-587.7366952290245 stress="2.9321259670723334e-06 3.276492390349977e-06 -8.74341346809773e-06 3.276492390349977e-06 1.4295681567639794e-05 -7.0188386974566775e-06 -8.74341346809773e-06 -7.0188386974566775e-06 1.3004765886551651e-05" free_energy=-587.7366952290245 pbc="F F F"
C        0.20976092      -0.34178514      -0.18810892        0      -1.00631565       0.44053643       0.64146978      -1.75853576       5.69213004       2.76993247      -1.75853576       5.69213004       2.76993247     -58.73937440
O       -0.16177331      -1.14418288      -0.93446562        0       1.32892978      -0.15521226      -2.42865362       0.13139766      -2.09234734      -0.87234933       0.13139766      -2.09234734      -0.87234933    -110.15278713
O       -0.09226794      -0.07045721       1.15728894        0      -0.63072780       1.78155780       3.01273262      -0.78073315      -4.34955450       0.14679681      -0.78073315      -4.34955450       0.14679681    -109.76289118
O        0.54404199       1.02769327      -0.50868889        0       0.68919170       1.53473120       0.70568867       1.29576932      -0.57103182       1.39377902       1.29576932      -0.57103182       1.39377902    -109.90038454
C       -0.48390651      -1.33831329       2.04467891        0       0.81443508      -1.92670435      -1.69060143       2.90613089       1.12551414      -1.26155208       2.90613089       1.12551414      -1.26155208     -57.81298448
C       -0.04445891       1.83090234      -1.48838067        0       0.67645767      -1.06728678      -0.66513081       2.92443495      -1.62129137      -3.62711245       2.92443495      -1.62129137      -3.62711245     -58.09800976
H       -1.47858163      -1.75375935       2.19399696        0      -0.64645397      -0.19389648      -0.24165812      -0.27504474       1.58051334      -0.09288453      -0.27504474       1.58051334      -0.09288453     -14.10154304
H       -0.02327307      -2.13067565       1.43688650        0       0.15005930      -0.19805757       0.40919583       0.31478899       0.15707530       0.26454769       0.31478899       0.15707530       0.26454769     -13.89926878
H        0.12597687      -1.17244464       2.98858258        0      -0.16236393      -0.18183649       0.57624461      -1.13671645      -0.18198524      -1.20676466      -1.13671645      -0.18198524      -1.20676466     -14.06430157
H       -0.72031938       2.56775318      -1.12474773        0      -0.58014607      -0.28284650      -0.42075302      -0.29635290       0.06734374       0.03744266      -0.29635290       0.06734374       0.03744266     -14.18722504
H        0.81928135       2.30376166      -2.31521902        0      -0.42455679       0.26068419      -0.16368179      -1.55168612      -0.32521196       2.67208844      -1.55168612      -0.32521196       2.67208844     -13.45137195
H       -0.26088708       1.00050673      -2.15744445        0      -0.20850931      -0.01166917       0.26514727      -1.77345270       0.51884568      -0.22392404      -1.77345270       0.51884568      -0.22392404     -13.56655336
12
Properties=species:S:1:pos:R:3:molID:I:1:momenta:R:3:force_mace:R:3:forces:R:3:energies:R:1 Nmols=1 Comp=DMC(1) energy_mace=-587.6034382020025 energy=-587.6034382020025 stress="4.505155727865363e-06 3.880319794146897e-06 4.303267937455444e-06 3.880319794146897e-06 2.4238309898563117e-05 3.881675849643073e-06 4.303267937455444e-06 3.881675849643073e-06 2.544474686956805e-05" free_energy=-587.6034382020025 pbc="F F F"
C        0.04677726      -0.21128817      -0.09869892        0      -2.40106742       1.53141183      -0.40043872       1.40270294      -0.98419587      -3.48842823       1.40270294      -0.98419587      -3.48842823     -59.02491980
O       -0.05075466      -1.11995721      -1.06603046        0       2.16424273       2.05607223      -0.13716896       0.04878499       5.50185615       6.57699487       0.04878499       5.50185615       6.57699487    -109.14643001
O       -0.13826662      -0.11744001       1.28060975        0      -0.07356102      -2.37079607       0.78139804       1.29851234      -2.53149056      -2.87749319       1.29851234      -2.53149056      -2.87749319    -110.14015319
O        0.61143946       1.07263323      -0.41177460        0       0.55250046      -0.75600964       1.55351660      -2.86194011      -1.61961440      -1.85433764      -2.86194011      -1.61961440      -1.85433764    -109.99292348
C       -0.39616046      -1.43287424       1.92945301        0       1.27811670       0.06632581      -1.48849153      -1.74398802       3.55370901       0.43108948      -1.74398802       3.55370901       0.43108948     -57.99669317
C       -0.04711383       1.73297057      -1.56033929        0      -1.06373079      -1.45338029      -0.46996227       0.22319173       1.17210280      -0.41802740       0.22319173       1.17210280      -0.41802740     -58.04162660
H       -1.44164089      -1.31831760       1.72887366        0      -0.26226160       0.31851146      -0.74648058      -0.86840065      -1.79805373      -0.28860357      -0.86840065      -1.79805373      -0.28860357     -13.67636227
H        0.19830821      -2.22050556       1.60762689        0      -0.08606768       0.28309297      -0.01293761       0.68909977      -1.05922266      -1.04485271       0.68909977      -1.05922266      -1.04485271     -14.17785481
H       -0.35062236      -1.30724641       2.99796590        0      -0.30122661       0.04981165       0.44828522       0.63433738       0.25428392       0.49348614       0.63433738       0.25428392       0.49348614     -13.99563995
H       -0.94607964       2.27666952      -1.33849399        0       0.05539849      -0.24740834       0.28695606       0.04790765       0.28719956       1.28669259       0.04790765       0.28719956       1.28669259     -13.74616173
H        0.62588219       2.57522802      -2.07125473        0       0.25584594       0.17561027       0.19530456      -1.00471903      -2.65951964       0.91161066      -1.00471903      -2.65951964       0.91161066     -13.89724811
H       -0.75389807       1.12287752      -2.18444097        0      -0.11818920       0.34675811      -0.00998082       2.13451100      -0.11705459       0.27186900       2.13451100      -0.11705459       0.27186900     -13.76742508
12
Properties=species:S:1:pos:R:3:molID:I:1:momenta:R:3:force_mace:R:3:forces:R:3:energies:R:1 Nmols=1 Comp=DMC(1) energy_mace=-587.7548018734592 energy=-587.7548018734592 stress="4.935223444408008e-06 -3.6118797993093006e-06 3.461311742728133e-06 -3.6118797993093006e-06 -3.396612198041107e-05 -1.3681298040954428e-06 3.461311742728133e-06 -1.3681298040954428e-06 -3.961756210537024e-06" free_energy=-587.7548018734592 pbc="F F F"
C       -0.07504501      -0.12127457      -0.14999183        0       0.08502995       1.87746270       1.22328242       3.25405067       3.41947070       6.93902135       3.25405067       3.41947070       6.93902135     -58.52204906
O        0.05757941      -0.89769134      -0.94050390        0       0.39429018       2.19984902       1.20072423      -1.67181401      -7.49324287      -5.53391629      -1.67181401      -7.49324287      -5.53391629    -109.79040085
O       -0.09330256      -0.25261196       1.24593732        0       1.42237081      -0.75902703      -1.84151820       0.12103637       4.73399808      -2.25666002       0.12103637       4.73399808      -2.25666002    -110.42454361
O        0.57367605       0.98067181      -0.36917738        0      -1.71251515      -0.92445822      -0.03869925      -1.78624049       3.30518659      -2.11832558      -1.78624049       3.30518659      -2.11832558    -109.91364392
C       -0.40799638      -1.35406684       1.82376583        0      -0.80258651       0.22253335      -1.90313094      -0.42398729      -5.67455659      -1.81819127      -0.42398729      -5.67455659      -1.81819127     -58.14513168
C       -0.10511424       1.64658731      -1.55450728        0      -0.89647022      -1.31392788       0.88979489       1.91843693       1.37995192       1.03491270       1.91843693       1.37995192       1.03491270     -57.87935533
H       -1.30657576      -1.78900538       1.43771282        0      -0.08549905      -1.01674720       0.03713207      -1.76093993       0.07259164       0.07640827      -1.76093993       0.07259164       0.07640827     -13.70531613
H        0.20696883      -2.19509055       1.39481702        0      -0.01316080       0.18718288       0.18381039       0.61850396       0.26045719       0.93856656       0.61850396       0.26045719       0.93856656     -13.61906801
H       -0.42002805      -1.32920370       2.84679541        0       0.19562599      -0.08014834       0.25646786       0.29877300       0.37540138       2.24892106       0.29877300       0.37540138       2.24892106     -13.97747009
H       -0.91019065       2.17911586      -0.96637844        0       0.32310387      -0.03984110       0.16499795       0.68743263      -0.02227314      -1.47458137       0.68743263      -0.02227314      -1.47458137     -13.91312742
H        0.80933486       2.30702651      -1.87898522        0       0.45814340      -0.06428759      -0.15055861      -2.35661898      -0.96066983       0.17225116      -2.35661898      -0.96066983       0.17225116     -13.86439052
H       -0.55626609       1.02713905      -2.41567428        0       0.63166752      -0.28859058      -0.02230280       1.10136716       0.60368493       1.79159345       1.10136716       0.60368493       1.79159345     -14.00030527
12
Properties=species:S:1:pos:R:3:molID:I:1:momenta:R:3:force_mace:R:3:forces:R:3:energies:R:1 Nmols=1 Comp=DMC(1) energy_mace=-588.1676862995877 energy=-588.1676862995877 stress="-2.174530129719866e-06 -9.135715462043853e-06 -7.441648938359317e-06 -9.135715462043853e-06 -1.0961740486710949e-05 6.600126836409309e-06 -7.441648938359317e-06 6.600126836409309e-06 -2.9706378228829912e-05" free_energy=-588.1676862995877 pbc="F F F"
C        0.04236541      -0.04101048      -0.03415406        0       2.27533740      -1.50232797      -1.64474853       1.37702684      -3.64786882      -6.96951959       1.37702684      -3.64786882      -6.96951959     -59.24274097
O        0.02646075      -0.89900766      -0.92627855        0      -0.75357060      -0.60657894       1.09286252      -1.12129634      -0.59530122       1.46452814      -1.12129634      -0.59530122       1.46452814    -109.39946842
O       -0.06369619      -0.21894019       1.15557799        0      -0.44728471       0.35909112       1.23587079      -2.07385584      -1.05848578       6.14578574      -2.07385584      -1.05848578       6.14578574    -110.41904917
O        0.50504225       1.08651262      -0.39694941        0      -0.08967287       3.87442806       0.04999915       1.62425228       2.96495564       3.24224977       1.62425228       2.96495564       3.24224977    -110.56403678
C       -0.47895126      -1.53591587       1.74415157        0      -0.16069112      -2.73284212      -0.28294046       6.30370292       2.32799161      -0.79817459       6.30370292       2.32799161      -0.79817459     -57.69570800
C       -0.07962402       1.58129790      -1.45524113        0       0.36372780      -0.47656688       0.15629426      -2.15865510       2.63422957      -4.64665556      -2.15865510       2.63422957      -4.64665556     -58.01708643
H       -1.36807805      -1.93280510       1.59803765        0      -0.39877502       0.42775229      -0.13571872      -3.66724595      -1.64337769      -1.90807224      -3.66724595      -1.64337769      -1.90807224     -14.07251426
H        0.49214506      -2.07596184       1.63519151        0      -0.08107141       0.10732056       0.02326972      -1.22110048      -0.73405520      -0.60901868      -1.22110048      -0.73405520      -0.60901868     -13.81392649
H       -0.41300594      -1.27114717       2.72723140        0      -0.18308510       0.25451428      -0.18157675      -0.17816458       0.81975610       3.10889290      -0.17816458       0.81975610       3.10889290     -13.69278050
H       -1.01351182       2.34737042      -1.26639743        0      -0.21867718       0.05223870      -0.61149083       1.91625856      -2.18414918      -0.15425570       1.91625856      -2.18414918      -0.15425570     -13.72793815
H        0.64309563       2.18915881      -2.02941197        0       0.09384752       0.43017677      -0.13583150      -0.01718022       0.29952674       0.52117520      -0.01718022       0.29952674       0.52117520     -13.78508955
H       -0.29406643       0.76642177      -2.20886742        0      -0.40008471      -0.18720587       0.43401035      -0.78374209       0.81677824       0.60306461      -0.78374209       0.81677824       0.60306461     -13.73734760
12
Properties=species:S:1:pos:R:3:molID:I:1:momenta:R:3:force_mace:R:3:forces:R:3:energies:R:1 Nmols=1 Comp=DMC(1) energy_mace=-588.3422894222437 energy=-588.3422894222437 stress="5.5796354507808e-06 3.7987852314073634e-06 -2.1621856216577673e-06 3.7987852314073634e-06 2.5182171501684508e-05 3.0476445271246715e-06 -2.1621856216577673e-06 3.0476445271246715e-06 7.69758347326574e-06" free_energy=-588.3422894222437 pbc="F F F"
C        0.25663005      -0.12665071      -0.15102915        0       2.88515644       0.66953797       0.64590727      -2.76546182       0.92417928       3.14479761      -2.76546182       0.92417928       3.14479761     -58.75299067
O       -0.02341742      -1.03387156      -0.91221295        0      -0.71000356      -2.84449497      -1.10186720       1.64357552       2.85435606       1.68752849       1.64357552       2.85435606       1.68752849    -109.99565369
O       -0.13575807      -0.18515491       1.24467588        0      -1.26936068      -0.68683603       0.49236540       1.90426814      -2.15442871      -2.49485685       1.90426814      -2.15442871      -2.49485685    -109.83328299
O        0.51074584       1.31234759      -0.31300046        0      -0.43412439       1.46757504       2.33025903      -1.34178516      -5.08217459      -1.49884444      -1.34178516      -5.08217459      -1.49884444    -110.09998406
C       -0.47134178      -1.60104252       1.78427554        0      -0.23785728       1.06104898       0.91115428       2.33844185       2.56806289      -2.70577339       2.33844185       2.56806289      -2.70577339     -57.95314562
C       -0.07852523       1.60498001      -1.58026358        0      -0.33568005       0.66890957      -2.26019246      -1.95192320       0.25145637       0.29499615      -1.95192320       0.25145637       0.29499615     -58.08333457
H       -1.38672856      -1.69405044       1.33362981        0       0.66828246       0.24816314      -0.02506971      -2.10615720      -1.32532035      -1.42665791      -2.10615720      -1.32532035      -1.42665791     -13.90219147
H        0.31339998      -2.34812961       1.51755822        0      -0.45561258      -0.12723298      -0.07701654      -0.74507656       0.94775471       0.41770309      -0.74507656       0.94775471       0.41770309     -14.16848183
H       -0.66925770      -1.31015420       2.74498690        0      -0.09614343      -0.51148902      -0.31335391       0.30266239       0.06867816       2.69652673       0.30266239       0.06867816       2.69652673     -13.94723047
H       -1.11961489       2.01788611      -1.48695105        0      -0.39841496       0.05737963       0.22777743       1.31643465       0.82418988       0.51172671       1.31643465       0.82418988       0.51172671     -13.76709961
H        0.63445538       2.15693807      -2.13307894        0       0.04197330      -0.11329402      -0.59379015       0.05018283       0.56415534      -0.64246279       0.05018283       0.56415534      -0.64246279     -14.08343824
H       -0.55067238       0.78048055      -2.12849338        0       0.34178472       0.11073269      -0.23617344       1.35483856      -0.44090904       0.01531659       1.35483856      -0.44090904       0.01531659     -13.75545619
12
Properties=species:S:1:pos:R:3:molID:I:1:momenta:R:3:force_mace:R:3:forces:R:3:energies:R:1 Nmols=1 Comp=DMC(1) energy_mace=-588.4427677984585 energy=-588.4427677984585 stress="3.4783830757491216e-06 1.008136692856029e-06 7.121746929722629e-06 1.008136692856029e-06 2.0963145568475608e-05 -2.0399205551190508e-06 7.121746929722629e-06 -2.0399205551190508e-06 2.0329687879741417e-05" free_energy=-588.4427677984585 pbc="F F F"
C        0.30085220      -0.12089436      -0.06114881        0      -1.74537532      -0.48149029       0.60301524      -3.46594482      -0.33556156      -1.61249483      -3.46594482      -0.33556156      -1.61249483     -59.03709027
O        0.02630418      -1.02530058      -0.88202851        0       2.19267298       3.16221038       2.12353616       1.94728297       3.02283106       1.85177428       1.94728297       3.02283106       1.85177428    -109.69315299
O       -0.10985507      -0.29129276       1.20991771        0       1.95813108      -1.57782112      -1.02639547       1.44121376       1.49809534       1.66789385       1.44121376       1.49809534       1.66789385    -110.34432165
O        0.44468694       1.27440462      -0.24018500        0      -1.33733096      -2.48934466      -0.25630211      -0.59835680      -2.45549736      -3.95523969      -0.59835680      -2.45549736      -3.95523969    -109.63227477
C       -0.51037823      -1.49923942       1.77527181        0      -1.57479290       0.23836854      -0.69823486      -1.91919993      -2.67380257      -2.68672438      -1.91919993      -2.67380257      -2.68672438     -58.10594244
C       -0.11833537       1.69150072      -1.73252775        0       0.28214355      -0.00531662      -1.11759148       0.73521082      -2.45068832       3.20007060       0.73521082      -2.45068832       3.20007060     -57.72545386
H       -1.50378331      -1.81478285       1.17976531        0       0.36059924       0.02992229       0.64543666       1.52168350       0.53840353       1.48612472       1.52168350       0.53840353       1.48612472     -13.70804909
H        0.14599374      -2.35127675       1.53679685        0      -0.03194773       0.07197449       0.04883958       0.43744203       0.38115919      -0.40841495       0.43744203       0.38115919      -0.40841495     -13.90337863
H       -0.64866362      -1.62998555       2.84686245        0       0.03878597      -0.01844609      -0.60910405      -0.23589705       1.27880682      -0.03718294      -0.23589705       1.27880682      -0.03718294     -14.07233667
H       -1.01369654       2.21189467      -1.42397274        0      -0.12691515       0.29836333      -0.00124574      -0.35623261      -0.52952766      -0.31312152      -0.35623261      -0.52952766      -0.31312152     -14.12416724
H        0.45705903       2.32602255      -2.35358596        0      -0.14423175       0.45059265       0.04011143       1.24712907       0.69849115       0.32106148       1.24712907       0.69849115       0.32106148     -14.09528496
H       -0.10547747       0.69930830      -2.23734217        0       0.12826098       0.32098711       0.24793463      -0.75433096       1.02729036       0.48625339      -0.75433096       1.02729036       0.48625339     -14.00131524
12
Properties=species:S:1:pos:R:3:molID:I:1:momenta:R:3:force_mace:R:3:forces:R:3:energies:R:1 Nmols=1 Comp=DMC(1) energy_mace=-588.9660446624628 energy=-588.9660446624628 stress="6.342836231403607e-06 1.5231966506567642e-06 5.269151503435713e-06 1.5231966506567642e-06 -7.578322231745375e-06 -1.4672901952445742e-06 5.269151503435713e-06 -1.4672901952445742e-06 2.5896134178070378e-06" free_energy=-588.9660446624628 pbc="F F F"
C        0.10403450      -0.07007797      -0.00310283        0      -2.33605489       2.15984251       0.79460988       0.99418228      -1.84457260      -2.73293992       0.99418228      -1.84457260      -2.73293992     -59.39471502
O        0.18921471      -0.93967397      -0.82702820        0       2.56437599      -1.27220752      -1.11209299      -0.74851273      -1.39008296      -0.92398279      -0.74851273      -1.39008296      -0.92398279    -109.64655375
O        0.00944858      -0.31084667       1.24388432        0       1.42719725       0.23445926       2.17074054      -1.21200133       1.01714496       2.12947156      -1.21200133       1.01714496       2.12947156    -110.52334182
O        0.35672198       1.13530133      -0.34215252        0      -1.56668617      -0.36629803      -2.57305628      -0.51011493       4.54757125      -1.52532386      -0.51011493       4.54757125      -1.52532386    -110.09039986
C       -0.54801363      -1.53025071       1.69252624        0      -0.63242158      -0.11988699      -0.41891564      -2.97133335       1.36864041       2.06126362      -2.97133335       1.36864041       2.06126362     -57.97866684
C       -0.12062230       1.70161886      -1.68654287        0       0.20760523      -0.62436987       1.67048367       0.65640591      -3.03206895       0.77052636       0.65640591      -3.03206895       0.77052636     -57.94129310
H       -1.75923148      -1.78163076       1.42338691        0       0.18700154       0.08623100      -0.03886373       3.39913213       0.93551303       0.08299075       3.39913213       0.93551303       0.08299075     -13.64606251
H        0.14693597      -2.26757592       1.41060668        0      -0.16011448      -0.25124887      -0.18152528       0.18131457      -1.32120081       0.03272534       0.18131457      -1.32120081       0.03272534     -13.99962126
H       -0.60088938      -1.20959378       2.80702950        0       0.42518578       0.38460514      -0.49613182       0.14747772      -1.52241272      -1.48614191       0.14747772      -1.52241272      -1.48614191     -13.67130570
H       -1.05695572       2.16159344      -1.56285733        0      -0.32927742      -0.40377868      -0.03519477      -1.41703734       0.20354536       0.63888911      -1.41703734       0.20354536       0.63888911     -14.01847879
H        0.51483422       2.47899711      -2.05539888        0       0.33115903      -0.32568928       0.34648623       1.04011184      -0.08976046       0.05054870       1.04011184      -0.08976046       0.05054870     -14.08366641
H       -0.24697294       0.82350977      -2.40131449        0      -0.11797028       0.49834133      -0.12653982       0.44037521       1.12768348       0.90197304       0.44037521       1.12768348       0.90197304     -13.97193959
12
Properties=species:S:1:pos:R:3:molID:I:1:momenta:R:3:force_mace:R:3:forces:R:3:energies:R:1 Nmols=1 Comp=DMC(1) energy_mace=-588.142412614773 energy=-588.142412614773 stress="6.255923991238033e-06 6.022077583917873e-06 1.1085350652718617e-06 6.022077583917873e-06 1.996492866433564e-06 1.0406368628751008e-05 1.1085350652718617e-06 1.0406368628751008e-05 6.629930545821513e-06" free_energy=-588.142412614773 pbc="F F F"
C        0.02705633      -0.08052746      -0.07571046        0       1.05938850      -2.34774074      -1.38196532       4.06804165      -0.64874448       1.70780190       4.06804165      -0.64874448       1.70780190     -58.79390819
O        0.33517136      -0.97228974      -0.83020539        0       1.72863516       0.92430895       1.38491527      -1.82577099       0.42339862       0.89965300      -1.82577099       0.42339862       0.89965300    -109.89929370
O        0.09783343      -0.27142077       1.36350794        0       0.72132939       0.15281638       0.67564356      -1.94286096      -1.36132181      -3.69585891      -1.94286096      -1.36132181      -3.69585891    -110.08452018
O        0.25679653       1.19569271      -0.47816749        0      -1.28547292       0.92461263      -0.33725535       1.08056987      -2.86330102       5.74770935       1.08056987      -2.86330102       5.74770935    -110.61128286
C       -0.59583704      -1.52239104       1.67831674        0      -0.19519013       0.76515047      -0.29167916      -1.15555870       1.60072859      -0.13074121      -1.15555870       1.60072859      -0.13074121     -58.09573321
C       -0.17500140       1.64606547      -1.55830279        0      -1.49752652      -0.43386594      -0.53158516       0.82688084       0.52991784      -6.53112567       0.82688084       0.52991784      -6.53112567     -58.01546735
H       -1.72564898      -1.43944289       1.18756291        0      -0.17417700       0.45541959      -0.17103133       2.50533336      -0.29237575       1.77930222       2.50533336      -0.29237575       1.77930222     -13.72718226
H       -0.16420962      -2.43237546       1.25525677        0      -0.26359098       0.23382004       0.00890075       0.21883968       0.50865696      -0.13145991       0.21883968       0.50865696      -0.13145991     -14.06608373
H       -0.43895414      -1.49872063       2.78017759        0      -0.16234520      -0.80804753       0.17305310      -0.95250128      -0.44354788      -0.85508928      -0.95250128      -0.44354788      -0.85508928     -13.93150758
H       -1.16777659       1.90764112      -1.40418483        0       0.17978809       0.14446267       0.25622054      -1.76159735       1.32150193      -0.22341786      -1.76159735       1.32150193      -0.22341786     -13.75084485
H        0.65851700       2.35947987      -1.75051536        0      -0.42732177       0.13596349       0.14294328      -1.34929834       0.42881444      -0.51797210      -1.34929834       0.42881444      -0.51797210     -13.52906476
H       -0.20928109       0.92223439      -2.53709604        0       0.31648338      -0.14690002       0.07183983       0.28792223       0.79627257       1.95119847       0.28792223       0.79627257       1.95119847     -13.63752394
12
Properties=species:S:1:pos:R:3:molID:I:1:momenta:R:3:force_mace:R:3:forces:R:3:energies:R:1 Nmols=1 Comp=DMC(1) energy_mace=-588.519655021644 energy=-588.519655021644 stress="8.3226893122499e-06 -9.553025547658418e-06 -2.586355331554409e-06 -9.553025547658418e-06 1.8480004996839964e-05 2.9204051798451088e-06 -2.586355331554409e-06 2.9204051798451088e-06 -1.1963599965450905e-07" free_energy=-588.519655021644 pbc="F F F"
C        0.22197870      -0.10858121       0.00554534        0       3.07600172       0.54734121       1.76142393       0.65405019      -1.10260550      -3.44183485       0.65405019      -1.10260550      -3.44183485     -59.37703428
O        0.40310942      -1.02125230      -0.81878067        0       1.26410180      -1.64121901       0.15044415      -0.66068215       1.65757725       1.77386119      -0.66068215       1.65757725       1.77386119    -109.70435451
O        0.10737151      -0.29794581       1.30581196        0       0.42299138      -0.41241818      -1.85392209       0.16333315       0.73119593       1.37296106       0.16333315       0.73119593       1.37296106    -110.53343422
O        0.19528384       1.18563882      -0.37599811        0      -0.58802078      -1.13400308       3.07532010      -0.27521873       0.60086387       0.82816141      -0.27521873       0.60086387       0.82816141    -110.13023602
C       -0.60169016      -1.44091291       1.65134801        0       0.50625778       0.68591225      -0.67106888      -3.37482080      -1.02875322      -2.93641438      -3.37482080      -1.02875322      -2.93641438     -57.91193380
C       -0.30800572       1.66996301      -1.68914836        0      -2.23195225       0.99232869      -1.36740277       0.88418599      -0.46307659       1.81996834       0.88418599      -0.46307659       1.81996834     -58.02717814
H       -1.81184458      -1.19637713       1.44080289        0      -0.85101969       0.21279570       0.00903193       2.51042005      -0.57159994      -0.42386797       2.51042005      -0.57159994      -0.42386797     -13.49352793
H       -0.21623646      -2.29854689       1.03931271        0      -0.33356697       0.36765242      -0.26686678      -0.60694198       0.64609313       0.00955261      -0.60694198       0.64609313       0.00955261     -13.85707063
H       -0.79674213      -1.88282737       2.57263398        0      -0.33588254       0.19472529       0.00646851       1.13374881       0.35080885       2.43594307       1.13374881       0.35080885       2.43594307     -13.95946920
H       -1.32121298       2.07895733      -1.46423346        0      -0.14971324      -0.21704216      -0.55215262      -0.15062660      -1.60677755      -0.65583141      -0.15062660      -1.60677755      -0.65583141     -13.84686721
H        0.12387302       2.71421523      -1.71286502        0      -0.56453974       0.27536300      -0.14040127       0.82172044      -1.52605381      -0.78956763       0.82172044      -1.52605381      -0.78956763     -13.78470540
H       -0.00661257       0.75184947      -2.31935765        0      -0.21465748       0.12856388      -0.15087421      -1.09916837       2.31232758       0.00706856      -1.09916837       2.31232758       0.00706856     -13.89384367
12
Properties=species:S:1:pos:R:3:molID:I:1:momenta:R:3:force_mace:R:3:forces:R:3:energies:R:1 Nmols=1 Comp=DMC(1) energy_mace=-587.7192590491954 energy=-587.7192590491954 stress="-7.111468983731896e-06 2.777264008757877e-06 6.552836508546218e-06 2.777264008757877e-06 -2.2041132566804584e-06 -6.734567704765919e-06 6.552836508546218e-06 -6.734567704765919e-06 1.7649355397024537e-05" free_energy=-587.7192590491954 pbc="F F F"
C        0.44796183      -0.14764328      -0.04718359        0       1.64537860      -0.35639417      -1.67219026      -3.26875413       3.69715975       2.96090639      -3.26875413       3.69715975       2.96090639     -58.91082482
O        0.47982707      -1.04200294      -0.75880214        0       1.83633438      -0.32386094       1.08153297       1.29808412      -3.20357328      -3.60672409       1.29808412      -3.20357328      -3.60672409    -110.03600906
O        0.14345753      -0.29966356       1.27867639        0       1.27594747       0.25912000       0.12654400       1.48370107       0.48441217       0.32034859       1.48370107       0.48441217       0.32034859    -110.15288829
O        0.13548948       1.13644162      -0.24023180        0      -1.68350622       0.00159217       0.03967063      -0.86584903       1.70479041      -5.05697761      -0.86584903       1.70479041      -5.05697761    -109.67400306
C       -0.72254173      -1.37648072       1.59864555        0      -1.55822061       0.50758098      -0.02824031       5.13890614      -1.59028675      -0.90830161       5.13890614      -1.59028675      -0.90830161     -58.15689855
C       -0.46047793       1.71190963      -1.71562063        0      -1.55579914      -0.19852120       0.46600142       2.11650727      -2.49796248       0.16525959       2.11650727      -2.49796248       0.16525959     -57.48372705
H       -1.57615873      -1.05951149       1.29174955        0      -0.53224883       0.39661644      -0.19439700      -6.19132222       1.95712539      -0.81747079      -6.19132222       1.95712539      -0.81747079     -13.55129114
H       -0.58363986      -2.18813400       0.80649336        0      -0.29422243      -0.17449186       0.25215197       0.54799568      -0.02879590       1.66106045       0.54799568      -0.02879590       1.66106045     -13.76971162
H       -0.53291301      -1.45553368       2.64339422        0       0.56297492       0.33260080      -0.23806379      -0.29609017      -0.97273531       0.46624009      -0.29609017      -0.97273531       0.46624009     -13.97967151
H       -1.55661873       1.58588716      -1.79845591        0       0.31204277      -0.43820859       0.16847468       0.77261132       0.68978230       1.17926763       0.77261132       0.68978230       1.17926763     -14.09929367
H        0.05690302       2.69195090      -1.91868748        0      -0.01371029      -0.17123140       0.06193226      -0.98071489      -1.12397829       0.91022677      -0.98071489      -1.12397829       0.91022677     -14.13448235
H       -0.16927889       1.03685056      -2.65580715        0       0.00502940       0.16519774      -0.06341658       0.24492484       0.88406197       2.72616458       0.24492484       0.88406197       2.72616458     -13.77045794
12
Properties=species:S:1:pos:R:3:molID:I:1:momenta:R:3:force_mace:R:3:forces:R:3:energies:R:1 Nmols=1 Comp=DMC(1) energy_mace=-588.2422451807417 energy=-588.2422451807417 stress="-2.784525682348261e-06 3.167897341581467e-06 -7.480140931600922e-06 3.167897341581467e-06 2.858566655696253e-05 5.997041464672454e-06 -7.480140931600922e-06 5.997041464672454e-06 1.7055919405651194e-06" free_energy=-588.2422451807417 pbc="F F F"
C        0.45641189      -0.06234962      -0.07261860        0      -1.81644520       0.53427746       0.24601108      -1.95121776      -4.53790462      -1.33123973      -1.95121776      -4.53790462      -1.33123973     -59.07664957
O        0.60215902      -1.12243930      -0.77142679        0       1.84924787      -0.69705170      -0.24952359      -0.14286495       4.84776210       1.73885285      -0.14286495       4.84776210       1.73885285    -109.48124616
O        0.23823674      -0.28984146       1.26347635        0       1.58382653       0.08981431      -0.80921472      -0.88829472      -0.49899140      -0.85297775      -0.88829472      -0.49899140      -0.85297775    -110.11127943
O        0.02273671       1.17681241      -0.36486742        0      -1.61416354       0.27282072      -2.81268426       2.20598319      -0.61761642       1.11594022       2.20598319      -0.61761642       1.11594022    -110.36293969
C       -0.82947032      -1.28199606       1.58196345        0      -0.63514098       1.70953127       0.00874311       6.99322311      -2.86460968       1.42207804       6.99322311      -2.86460968       1.42207804     -57.88589150
C       -0.47486385       1.60121333      -1.61341761        0       0.46087265      -1.82491748       2.23639008       1.16157867       0.30748883       0.06776658       1.16157867       0.30748883       0.06776658     -58.14076779
H       -1.72948811      -0.92625543       1.61075526        0       0.65146081      -0.20012875       0.84962263      -4.77395779       2.22439982      -0.38483986      -4.77395779       2.22439982      -0.38483986     -14.04540498
H       -0.75099853      -2.34423950       1.20973617        0      -0.00169130       0.10939373      -0.06470441       0.12578470       1.50358857      -1.05866820       0.12578470       1.50358857      -1.05866820     -13.92288135
H       -0.44192165      -1.51834911       2.58479094        0      -0.44675332       0.00647615       0.16406222      -0.59981638       0.34396436       0.43675684      -0.59981638       0.34396436       0.43675684     -13.69574196
H       -1.52078572       1.40235783      -1.37399430        0       0.18877037       0.16778406       0.13286604      -0.30565273       0.03443724      -1.67899062      -0.30565273       0.03443724      -1.67899062     -13.77909887
H       -0.32249419       2.75825418      -1.60082419        0      -0.60223591       0.02685319       0.17161560      -0.09117498      -2.13938426      -0.49449949      -0.09117498      -2.13938426      -0.49449949     -13.86446765
H        0.14336369       0.99972131      -2.41405003        0       0.38225201      -0.19485297       0.12681622      -1.73359035       1.39686545       1.01982111      -1.73359035       1.39686545       1.01982111     -13.87587624
12
Properties=species:S:1:pos:R:3:molID:I:1:momenta:R:3:force_mace:R:3:forces:R:3:energies:R:1 Nmols=1 Comp=DMC(1) energy_mace=-588.9918937099552 energy=-588.9918937099552 stress="5.6023219471043585e-06 -1.9910402596949563e-06 -9.30964182952532e-07 -1.9910402596949563e-06 -5.640058145643381e-07 3.905012857300238e-06 -9.30964182952532e-07 3.905012857300238e-06 -1.3273453580394501e-05" free_energy=-588.9918937099552 pbc="F F F"
C        0.26918463      -0.16039658      -0.11069699        0      -1.78803892      -1.55292447      -0.68081754       0.97325424       2.54107789       2.23521210       0.97325424       2.54107789       2.23521210     -58.93121607
O        0.69378309      -1.04558293      -0.73505679        0       0.99217461       2.40169327      -0.00753559       0.05907189      -1.19539562      -2.82035504       0.05907189      -1.19539562      -2.82035504    -109.96146774
O        0.25286681      -0.30094711       1.23135886        0      -0.91577589       0.13325952       0.72499872      -0.61115961       1.60208848       0.88831485      -0.61115961       1.60208848       0.88831485    -110.28462311
O        0.01790550       1.16892750      -0.41238771        0       1.47054760      -1.35132264       1.93366572       0.71370744      -2.59006016       3.68124505       0.71370744      -2.59006016       3.68124505    -110.57668618
C       -0.72886763      -1.18636908       1.67077622        0       1.39931789       0.81370332       1.72021702      -1.37555673      -0.15048567      -0.88581082      -1.37555673      -0.15048567      -0.88581082     -58.13553631
C       -0.49438153       1.49034756      -1.55363389        0      -2.42057508      -0.70440082      -1.51979428      -2.07830957       2.29620857      -5.99664815      -2.07830957       2.29620857      -5.99664815     -58.03280834
H       -1.76008079      -0.72733472       1.80345191        0       0.89455294       0.03290600      -0.76725957       0.96440883      -0.01469561      -0.82062588       0.96440883      -0.01469561      -0.82062588     -13.89209770
H       -0.74346477      -1.89372135       0.81071800        0      -0.34235482       0.50460974      -0.10422831      -0.82802789      -0.69841415       1.63788348      -0.82802789      -0.69841415       1.63788348     -13.77859319
H       -0.51777143      -1.48127417       2.67980009        0       0.32677616      -0.00057318      -0.19731777       0.77022591      -0.78630472       0.08977139       0.77022591      -0.78630472       0.08977139     -13.98233715
H       -1.58302284       1.19803087      -1.91103874        0       0.08265458      -0.54911171      -0.39002952       1.82109568       0.04329228       1.53044378       1.82109568       0.04329228       1.53044378     -13.84371975
H       -0.48947190       2.63104573      -1.59839892        0       0.15470439       0.27262323      -0.05520920       0.00362434      -1.37809262      -0.00265511       0.00362434      -1.37809262      -0.00265511     -13.76515526
H        0.14371619       1.11104465      -2.40682238        0       0.14601652      -0.00046226      -0.65668969      -0.41233453       0.33078131       0.46322435      -0.41233453       0.33078131       0.46322435     -13.80765290
12
Properties=species:S:1:pos:R:3:molID:I:1:momenta:R:3:force_mace:R:3:forces:R:3:energies:R:1 Nmols=1 Comp=DMC(1) energy_mace=-588.0628504371927 energy=-588.0628504371927 stress="4.722194213786219e-06 -5.295645707156702e-06 1.2885323408236173e-05 -5.295645707156702e-06 1.019829438763038e-06 7.084800268494188e-06 1.2885323408236173e-05 7.084800268494188e-06 -3.856696500346803e-07" free_energy=-588.0628504371927 pbc="F F F"
C        0.19533939      -0.18174651      -0.06288768        0       1.05710405      -0.86848631       0.47884577       4.42808864      -1.40508802      -2.15252775       4.42808864      -1.40508802      -2.15252775     -59.05895777
O        0.74687456      -0.96847675      -0.84459984        0      -0.17363456       0.64060433      -1.98371214      -2.36357865       0.75095271       1.69352346      -2.36357865       0.75095271       1.69352346    -109.61095843
O        0.17139668      -0.26736628       1.25510742        0      -0.70922193       1.17296783      -0.49291825       2.28866015       0.69554284      -1.33085828       2.28866015       0.69554284      -1.33085828    -110.53838175
O        0.08958481       1.07264490      -0.33290502        0      -0.01985676      -0.92880167       0.05145846      -2.68291615       2.47229873      -3.41756791      -2.68291615       2.47229873      -3.41756791    -109.96594644
C       -0.64376365      -1.14844932       1.78873813        0       0.14932605       0.26052292       1.47545291      -4.09716673      -0.79786910       0.29037104      -4.09716673      -0.79786910       0.29037104     -58.00376435
C       -0.58857164       1.46464030      -1.76478592        0      -0.32059655      -0.49021896      -1.99312888      -1.54513284      -0.09912617       5.67313023      -1.54513284      -0.09912617       5.67313023     -57.60071792
H       -1.59904454      -0.42489566       1.77839087        0       0.08866077      -0.13183921       1.11997825       1.05760079      -2.26868882       1.36550932       1.05760079      -2.26868882       1.36550932     -13.39432341
H       -0.98259261      -2.05461411       1.19870781        0       0.12736053      -0.22518611       0.82900340       0.51535645       0.80951260      -0.05335202       0.51535645       0.80951260      -0.05335202     -13.86666632
H       -0.12977800      -1.55063003       2.65036189        0      -0.10771602       0.18149921      -0.08297089      -0.64127583       0.27666028       0.92735873      -0.64127583       0.27666028       0.92735873     -13.87100843
H       -1.59158181       0.86682030      -1.76079575        0      -0.08314372      -0.03454385       0.37127790       2.02265342       1.37475760      -0.33460368       2.02265342       1.37475760      -0.33460368     -14.05890845
H       -0.58733887       2.54480827      -1.52187825        0      -0.43154417       0.39290011       0.32166619      -0.73046301      -0.71664299      -0.44418369      -0.73046301      -0.71664299      -0.44418369     -13.99125429
H        0.15347991       1.28321823      -2.42814557        0       0.42326231       0.03058172      -0.09495272       1.74817376      -1.09230966      -2.21679944       1.74817376      -1.09230966      -2.21679944     -14.10196289
12
Properties=species:S:1:pos:R:3:molID:I:1:momenta:R:3:force_mace:R:3:forces:R:3:energies:R:1 Nmols=1 Comp=DMC(1) energy_mace=-588.5988117538096 energy=-588.5988117538096 stress="3.4163347427205763e-06 4.229220486322637e-06 4.344610576360143e-06 4.229220486322637e-06 -3.7109650967709213e-06 -5.705267759487905e-06 4.344610576360143e-06 -5.705267759487905e-06 3.6228681755858727e-06" free_energy=-588.5988117538096 pbc="F F F"
C        0.40434265      -0.23063509      -0.09654382        0       2.35858055       0.81260863      -0.20468795      -2.27460720       3.14273376       0.10673303      -2.27460720       3.14273376       0.10673303     -59.06789887
O        0.70085777      -0.95637413      -0.95339332        0      -0.93279286      -1.34248758      -2.05893369       0.98576608      -2.36567174      -0.79305593       0.98576608      -2.36567174      -0.79305593    -110.02097123
O        0.16789280      -0.19997280       1.21044879        0       0.18236451       0.84821835      -0.49886170      -0.73389286      -1.29866291       0.97566040      -0.73389286      -1.29866291       0.97566040    -110.10634036
O        0.00167328       1.05090110      -0.37497345        0      -2.27664453      -0.13330646      -1.38660320      -0.15155036       1.58916167      -1.51706612      -0.15155036       1.58916167      -1.51706612    -109.86224036
C       -0.71331221      -1.12422547       1.94334786        0      -0.69253762       0.06882217       3.13148838       2.81455358       0.47584214       2.60604459       2.81455358       0.47584214       2.60604459     -57.96440143
C       -0.52592726       1.42833618      -1.72204047        0       1.48915178      -0.73902774       2.23195956      -4.64497625      -1.55153480       4.42441247      -4.64497625      -1.55153480       4.42441247     -58.03206814
H       -1.51286853      -0.76764971       2.58166540        0      -0.20786934      -0.06614455       0.13922004      -0.79621007       0.68375848      -1.49852762      -0.79621007       0.68375848      -1.49852762     -13.90242128
H       -0.85831856      -2.04955468       1.43257509        0       0.16897910       0.28283705      -0.30022611      -0.20307681      -0.07381111      -0.20210910      -0.20307681      -0.07381111      -0.20210910     -14.15912029
H       -0.09173488      -1.20346247       2.90233615        0       0.17925232       0.33741318      -0.11245765      -0.19650222      -0.80917698      -1.43371543      -0.19650222      -0.80917698      -1.43371543     -13.56948403
H       -1.49462796       0.77743805      -1.81492555        0       0.06628497      -0.43957552      -0.48465756       1.55902855       0.39746720      -0.29696129       1.55902855       0.39746720      -0.29696129     -13.76749857
H       -1.02436923       2.39732567      -1.67795957        0      -0.20875970       0.33910776      -0.38438671       0.99702845       0.33616291       0.28818795       0.99702845       0.33616291       0.28818795     -14.02597371
H        0.09359302       1.26782609      -2.48178463        0      -0.12600919       0.03153472      -0.07185340       2.64443910      -0.52626862      -2.65960296       2.64443910      -0.52626862      -2.65960296     -14.12039349
12
Properties=species:S:1:pos:R:3:molID:I:1:momenta:R:3:force_mace:R:3:forces:R:3:energies:R:1 Nmols=1 Comp=DMC(1) energy_mace=-587.6740770820561 energy=-587.6740770820561 stress="4.8898764109364315e-06 -2.454898484848921e-07 -7.527451879649574e-06 -2.454898484848921e-07 -3.5803526341784406e-06 2.7401143634882488e-06 -7.527451879649574e-06 2.7401143634882488e-06 1.2119257740662982e-06" free_energy=-587.6740770820561 pbc="F F F"
C        0.51074638      -0.12692151      -0.16454541        0      -0.26220398       0.82784613      -1.53096436      -3.86829709      -2.40378728      -0.46875650      -3.86829709      -2.40378728      -0.46875650     -58.81475903
O        0.64522324      -1.00192462      -1.02397131        0      -0.86201968       0.55444179       0.31120597       0.63481756       2.61920315       2.79041175       0.63481756       2.61920315       2.79041175    -109.84236173
O        0.19689319      -0.18010066       1.19437075        0       0.21883300       0.04687530       0.15010741       0.73259958      -0.40184175       0.46999542       0.73259958      -0.40184175       0.46999542    -109.45744817
O       -0.11017510       1.07264972      -0.42074826        0      -0.45467324       0.11426049       0.36194234       2.21711505      -0.88335201       3.61213614       2.21711505      -0.88335201       3.61213614    -110.48688209
C       -0.70194587      -1.09933840       2.15731090        0       0.88195547       0.37238974       1.73776359       2.52939743       0.20724572      -2.73978036       2.52939743       0.20724572      -2.73978036     -57.71466609
C       -0.52272200       1.32205640      -1.62806168        0      -0.03794277      -1.59955547      -1.91392844       1.17814492       0.22634772      -4.89914225       1.17814492       0.22634772      -4.89914225     -58.10266406
H       -1.73118011      -0.68766042       2.13892065        0       0.28803166       0.03341993      -0.43380743       0.89128241       0.64014162       1.32975925       0.89128241       0.64014162       1.32975925     -14.07775972
H       -0.81668709      -1.85021179       1.42509741        0      -0.10075828       0.08773527       0.21322693      -0.19176800      -1.77535569      -0.57603512      -0.19176800      -1.77535569      -0.57603512     -13.79326777
H        0.13876933      -1.45967547       2.84121118        0      -0.08243231      -0.35511108       0.30858443      -1.91917562       1.05039085      -0.01172199      -1.91917562       1.05039085      -0.01172199     -14.03082181
H       -1.17359207       0.63632138      -2.09419301        0      -0.26457189      -0.37461776      -0.15065222      -1.74870277      -0.79984253       0.12914094      -1.74870277      -0.79984253       0.12914094     -13.89583102
H       -0.74700274       2.32415215      -1.75923335        0       0.22619311       0.17770329       0.29082341      -1.54646862       1.91285990       0.43329900      -1.54646862       1.91285990       0.43329900     -13.81361129
H        0.26172028       1.28032130      -2.39878810        0       0.44958892       0.11461236       0.65569837       1.09105516      -0.39200969      -0.06930629       1.09105516      -0.39200969      -0.06930629     -13.64400430
12
Properties=species:S:1:pos:R:3:molID:I:1:momenta:R:3:force_mace:R:3:forces:R:3:energies:R:1 Nmols=1 Comp=DMC(1) energy_mace=-588.2915748933644 energy=-588.2915748933644 stress="-2.724138195916495e-06 2.7382563322278617e-06 -1.5586683144946692e-06 2.7382563322278617e-06 -1.1749102790075448e-05 -2.919608366353001e-06 -1.5586683144946692e-06 -2.919608366353001e-06 7.521019493971857e-06" free_energy=-588.2915748933644 pbc="F F F"
C        0.35820245      -0.11499552      -0.17103646        0      -3.12354596      -0.47653600       1.43334572      -1.07970109      -1.70070415       2.83779363      -1.07970109      -1.70070415       2.83779363     -59.15892413
O        0.65265344      -0.91545604      -0.98302256        0       0.71250625       1.36608995       0.47106242       0.72887397      -1.18031366      -0.26253989       0.72887397      -1.18031366      -0.26253989    -109.99989352
O        0.20616216      -0.20451399       1.24079913        0      -0.17259788      -0.80337197       1.77532684       1.18132786      -1.17329576       0.49964180       1.18132786      -1.17329576       0.49964180    -109.65121853
O       -0.09529653       1.05253368      -0.37531411        0       0.55463987      -1.06718712       0.41552770      -1.80180223       1.97219936      -1.61884244      -1.80180223       1.97219936      -1.61884244    -110.23840115
C       -0.58007398      -1.09037026       2.12713575        0       1.17014966       0.31030705      -2.11108807      -0.88039013       1.23721132       0.06867237      -0.88039013       1.23721132       0.06867237     -58.01166573
C       -0.50932350       1.24233705      -1.85565048        0       1.60382389       0.46022005      -2.02148342       3.43168524       0.87449763       3.71965445       3.43168524       0.87449763       3.71965445     -57.71115505
H       -1.41836846      -0.40659107       2.30789894        0       0.42922394       0.14183766       0.46788492      -0.41260865      -0.51339465      -0.07169515      -0.41260865      -0.51339465      -0.07169515     -13.83764232
H       -0.90879394      -2.00789601       1.65790541        0       0.13154226       0.13618707       0.36993622       0.26862329       0.07942187      -0.44618851       0.26862329       0.07942187      -0.44618851     -14.12563300
H       -0.27594803      -1.32617769       3.19057039        0      -0.24286326       0.59046989       0.14542679       0.97475663       0.41689937      -1.44596663       0.97475663       0.41689937      -1.44596663     -13.99899106
H       -1.33452004       0.72252713      -2.10319845        0      -0.25219602       0.04232360      -0.16921747      -1.60097153      -2.76925710      -1.09358814      -1.60097153      -2.76925710      -1.09358814     -13.96165942
H       -0.95225130       2.15191474      -1.71257129        0      -0.19447999      -0.67269127      -0.36429107      -0.37326955       2.92719213      -0.35512385      -0.37326955       2.92719213      -0.35512385     -13.73825630
H        0.52093011       1.21388081      -2.15017596        0      -0.61620277      -0.02764891      -0.41243057      -0.43652380      -0.17045638      -1.83181764      -0.43652380      -0.17045638      -1.83181764     -13.85813468
12
Properties=species:S:1:pos:R:3:molID:I:1:momenta:R:3:force_mace:R:3:forces:R:3:energies:R:1 Nmols=1 Comp=DMC(1) energy_mace=-587.7812088709034 energy=-587.7812088709034 stress="-4.823412447425398e-06 -3.865880543128226e-06 4.717997797810936e-06 -3.865880543128226e-06 -2.665930644820418e-06 1.8387549079527813e-06 4.717997797810936e-06 1.8387549079527813e-06 1.479289694263719e-05" free_energy=-587.7812088709034 pbc="F F F"
C        0.13335864      -0.21420643      -0.04042787        0      -1.30377856      -1.22206031       1.04082484       3.49028951       2.41113667      -2.02759170       3.49028951       2.41113667      -2.02759170     -58.88375829
O        0.68159416      -0.83785708      -0.93403491        0       0.03459266       1.25018747       1.73645922      -1.26596671      -1.63112754       1.72143736      -1.26596671      -1.63112754       1.72143736    -109.69280724
O        0.25319199      -0.27002866       1.32804933        0       1.44068615      -1.19452314      -0.29457007       0.76592896       1.13150669      -4.33859142       0.76592896       1.13150669      -4.33859142    -110.58862539
O       -0.09864932       1.07357394      -0.41897790        0      -0.61908658       1.32394499      -2.33441926      -1.73868609       0.60322306      -2.56958663      -1.73868609       0.60322306      -2.56958663    -109.90203973
C       -0.57366959      -1.01101690       2.03397141        0      -1.05351608       0.71090849       0.28462332      -0.25409843      -1.62427853       3.54900739      -0.25409843      -1.62427853       3.54900739     -58.03187502
C       -0.42214175       1.23329272      -1.92800384        0       0.19757423      -0.37062730      -0.58035108      -0.45910979       2.09279680       1.11358853      -0.45910979       2.09279680       1.11358853     -57.95193270
H       -1.38666349      -0.54299680       2.48716565        0      -0.38407813      -0.16291428       0.02275688      -1.83820013       0.97320434      -0.36609230      -1.83820013       0.97320434      -0.36609230     -13.73745609
H       -0.83519520      -2.01046211       1.70296326        0       0.15141522       0.31676127      -0.07428811       0.33021523       0.04596012      -0.29278091       0.33021523       0.04596012      -0.29278091     -14.06771519
H       -0.07624366      -0.92645298       2.99278226        0       0.54938061       0.07834080       0.11856690       0.14327774      -1.35043820       0.56103625       0.14327774      -1.35043820       0.56103625     -13.38156681
H       -0.94606747       0.40622389      -2.26351320        0       0.74385488      -0.34010798       0.01843558      -1.53842158      -1.22792008       0.23275202      -1.53842158      -1.22792008       0.23275202     -13.79706149
H       -1.04313583       2.22996333      -2.12634999        0       0.69032560      -0.48237436      -0.27059210       1.68268879      -2.27600980       0.83837956       1.68268879      -2.27600980       0.83837956     -13.92486796
H        0.27299956       1.04008879      -2.75831838        0      -0.44736999       0.09246435       0.33255387       0.68208249       0.85194646       1.57844185       0.68208249       0.85194646       1.57844185     -13.82150295
12
Properties=species:S:1:pos:R:3:molID:I:1:momenta:R:3:force_mace:R:3:forces:R:3:energies:R:1 Nmols=1 Comp=DMC(1) energy_mace=-588.0595623982258 energy=-588.0595623982258 stress="-3.7925361048159094e-07 -2.6521291546844544e-06 -2.7978703177212534e-06 -2.6521291546844544e-06 4.140703541943316e-06 -4.2187864239644e-06 -2.7978703177212534e-06 -4.2187864239644e-06 -1.1230989497634228e-05" free_energy=-588.0595623982258 pbc="F F F"
C        0.16159535      -0.14801045      -0.03057497        0       1.36507391       2.54198480      -0.96514666       1.30367078       2.50368800      -1.74571629       1.30367078       2.50368800      -1.74571629     -59.06304998
O        0.70168594      -0.83896875      -0.82429016        0       0.71809299      -0.79954809       1.91062818       0.04174218      -1.99286701      -1.37737287       0.04174218      -1.99286701      -1.37737287    -109.79116814
O        0.30232274      -0.29924757       1.23737551        0      -0.23013847      -0.43216609      -1.57108411      -0.28612005       0.44081302       2.93514133      -0.28612005       0.44081302       2.93514133    -110.21934514
O       -0.18198704       1.13801627      -0.55049016        0      -1.96380578       0.63748240      -1.44753239      -1.33612985      -0.82036446       2.88132935      -1.33612985      -0.82036446       2.88132935    -110.31173037
C       -0.64326177      -0.99711384       2.16530074        0      -0.58957177      -0.40684738       0.49978112       0.15367416      -1.48036679      -5.53225721       0.15367416      -1.48036679      -5.53225721     -57.85369004
C       -0.42685640       1.14526788      -1.87125795        0       0.56561836      -1.50280228       0.23301902       3.09761798       2.52788310      -3.94628415       3.09761798       2.52788310      -3.94628415     -58.14721730
H       -1.56742090      -0.47612826       2.00916402        0       0.20589717       0.29501831      -0.43626168      -0.41423448       0.40645782       1.33426824      -0.41423448       0.40645782       1.33426824     -14.05533501
H       -0.75223449      -1.95076013       1.54528586        0       0.09566939       0.19201415       0.29360963      -0.60016357       0.32505246       0.78109440      -0.60016357       0.32505246       0.78109440     -13.65215548
H       -0.00524605      -1.30332613       2.90629587        0      -0.36436395      -0.52960948       0.39960739       0.64193777       0.37309355       2.62714140       0.64193777       0.37309355       2.62714140     -13.98945575
H       -0.64843910       0.26588925      -2.42028856        0      -0.22008330       0.20564457      -0.15192113      -1.67655097      -0.40485956       0.31889459      -1.67655097      -0.40485956       0.31889459     -13.74661807
H       -0.81569839       2.20317146      -2.22716531        0       0.13357220      -0.36653300       0.34711267       0.30210556      -2.72192008       0.81613774       0.30210556      -2.72192008       0.81613774     -13.85719782
H        0.59693355       0.99219015      -2.44371090        0       0.28403925       0.16536209       0.88818795      -1.22754950       0.84338995       0.90762347      -1.22754950       0.84338995       0.90762347     -13.37259929
12
Properties=species:S:1:pos:R:3:molID:I:1:momenta:R:3:force_mace:R:3:forces:R:3:energies:R:1 Nmols=1 Comp=DMC(1) energy_mace=-587.6177018539966 energy=-587.6177018539966 stress="6.392870165357375e-06 5.194643106798434e-06 -1.8984377744882966e-06 5.194643106798434e-06 8.523038610301169e-06 1.577341741605213e-06 -1.8984377744882966e-06 1.577341741605213e-06 -6.2229359752784594e-06" free_energy=-587.6177018539966 pbc="F F F"
C        0.30106259       0.07290112      -0.12997789        0       1.74713630       1.11620360      -0.72786427      -0.30561639      -5.51799724       2.69033518      -0.30561639      -5.51799724       2.69033518     -59.12894053
O        0.72670964      -0.89491080      -0.72473806        0       0.55627699      -0.93608554       1.10558478       0.22096537       1.67125787      -1.55801662       0.22096537       1.67125787      -1.55801662    -109.55839213
O        0.29115185      -0.31395075       1.21400814        0      -0.16403567      -0.24407045       1.23137069       0.27864564       0.32551855       2.43772015       0.27864564       0.32551855       2.43772015    -109.61416407
O       -0.32351841       1.10670189      -0.52360435        0      -2.74411073      -0.48591424       1.07334575      -0.59780309       0.30656458      -0.05248383      -0.59780309       0.30656458      -0.05248383    -110.71754218
C       -0.66107369      -1.01170112       2.09934487        0      -0.14634029      -0.35768181      -1.26782821      -1.00855843      -0.13607137      -1.60824638      -1.00855843      -0.13607137      -1.60824638     -58.03818352
C       -0.31062634       1.02948698      -1.95490539        0       1.53971611      -0.19282381      -1.41677313      -1.27021007       4.71504110       1.16070711      -1.27021007       4.71504110       1.16070711     -57.76545549
H       -1.40790261      -0.26754133       2.26886697        0      -0.20879255       0.10455978       0.61126928      -1.30102134       0.28088574      -0.62824719      -1.30102134       0.28088574      -0.62824719     -13.84931832
H       -1.08957744      -2.02036371       1.70867161        0      -0.47591155       0.25436276       0.23793005       1.11617349       2.05398150       0.31347246       1.11617349       2.05398150       0.31347246     -14.02712963
H       -0.37553872      -1.09043058       3.12889627        0      -0.26687627       0.66228341      -0.36226833       1.46786364      -0.58535745       0.11469925       1.46786364      -0.58535745       0.11469925     -13.97319807
H       -1.13682174       0.34809308      -2.27673808        0       0.12559834       0.23424878       0.40385539       1.54892254      -0.62239793      -0.28854628       1.54892254      -0.62239793      -0.28854628     -13.90346848
H       -0.93954683       2.06126479      -2.09661756        0       0.05914284      -0.10977135      -0.41780119       1.80194612      -1.51007662      -0.71879720       1.80194612      -1.51007662      -0.71879720     -13.41424729
H        0.82750637       1.23742724      -2.01336074        0      -0.02180352      -0.04531112      -0.47082080      -1.95130748      -0.98134873      -1.86259666      -1.95130748      -0.98134873      -1.86259666     -13.62766214
12
Properties=species:S:1:pos:R:3:molID:I:1:momenta:R:3:force_mace:R:3:forces:R:3:energies:R:1 Nmols=1 Comp=DMC(1) energy_mace=-587.29065993827 energy=-587.29065993827 stress="2.5602814533541506e-06 -1.861449922759354e-06 4.1857386223583626e-07 -1.861449922759354e-06 1.5002641408384135e-05 -2.628419627276853e-06 4.1857386223583626e-07 -2.628419627276853e-06 1.5612830511346675e-05" free_energy=-587.29065993827 pbc="F F F"
C        0.40233482       0.00936146      -0.04988862        0      -0.19000531      -1.53320693       2.41266888      -4.40166533      -1.15859672       0.76174405      -4.40166533      -1.15859672       0.76174405     -58.79391236
O        0.78004409      -0.90427559      -0.72690644        0       1.57018546       0.30235666      -1.03824544       0.68592425       1.51139780      -0.52829094       0.68592425       1.51139780      -0.52829094    -109.94235192
O        0.24152393      -0.31212627       1.33616932        0      -1.55184722       0.46933828       1.18845153       2.40036300       2.01211628      -2.84655717       2.40036300       2.01211628      -2.84655717    -110.29986552
O       -0.45000093       1.05392295      -0.51734159        0      -0.74064445      -1.23585012      -0.44173055       4.02087881      -1.25571358      -2.55692368       4.02087881      -1.25571358      -2.55692368    -110.02902920
C       -0.71783394      -0.90816642       2.02157495        0      -0.98847940       2.02344980       0.29932077      -0.43442000      -2.30156972       2.02075186      -0.43442000      -2.30156972       2.02075186     -58.06559035
C       -0.24110640       1.10520779      -2.00474674        0       0.60067646       0.21521422      -0.09492049      -0.28425965      -1.43397921      -2.78602287      -0.28425965      -1.43397921      -2.78602287     -57.87659493
H       -1.45865904      -0.27199617       2.33058686        0      -0.14194757       0.42553620      -0.49622885      -2.37460876       2.17206392       0.05521843      -2.37460876       2.17206392       0.05521843     -13.77446419
H       -1.29804969      -1.85535513       1.70448485        0       0.39720558      -0.12313663      -0.55953297       1.81062155       1.05616085      -0.15540458       1.81062155       1.05616085      -0.15540458     -13.96832531
H       -0.13851283      -0.94192615       2.95705019        0       0.32258827      -0.51448178      -0.32889713      -0.32830197      -1.44500905       0.12044804      -0.32830197      -1.44500905       0.12044804     -13.45493098
H       -0.64486341       0.08180312      -2.37850648        0       0.64886709       0.15488590      -0.39041709      -0.87188376       1.68666828       0.58639017      -0.87188376       1.68666828       0.58639017     -13.65504411
H       -0.65365315       2.04712965      -2.63875553        0       0.04471321       0.26833919      -0.48031717       0.54065287      -2.32294857       2.44397761       0.54065287      -2.32294857       2.44397761     -13.87238465
H        0.72279507       0.80691257      -2.65226928        0       0.02868786      -0.45244479      -0.07015147      -0.76330101       1.47940972       2.88466908      -0.76330101       1.47940972       2.88466908     -13.55816641
12
Properties=species:S:1:pos:R:3:molID:I:1:momenta:R:3:force_mace:R:3:forces:R:3:energies:R:1 Nmols=1 Comp=DMC(1) energy_mace=-587.9364167156208 energy=-587.9364167156208 stress="1.2733997796668348e-06 -1.1466352325717099e-05 3.3717047312069934e-06 -1.1466352325717099e-05 1.1741567950375515e-05 -4.2924916501851196e-07 3.3717047312069934e-06 -4.2924916501851196e-07 1.3111938878600047e-05" free_energy=-587.9364167156208 pbc="F F F"
C        0.26325154      -0.12600596       0.07328134        0      -2.38921791      -1.55458594      -0.53137508       0.32709988       0.73637755      -5.70067846       0.32709988       0.73637755      -5.70067846     -59.21657114
O        0.86450265      -0.82889040      -0.73713931        0       0.87534436       1.02235351       1.33029742      -0.67124876       0.27933234       2.18054467      -0.67124876       0.27933234       2.18054467    -109.71523235
O        0.21316930      -0.20869549       1.34567508        0       1.16859123       3.00778176      -0.32106705       1.33624395       1.49696667       2.32445336       1.33624395       1.49696667       2.32445336    -110.40569242
O       -0.41358854       0.96174373      -0.60426786        0       0.92308934      -1.16420435      -1.59101194      -0.32001745       0.05329806       0.45937033      -0.32001745       0.05329806       0.45937033    -110.03988298
C       -0.83709249      -0.84433880       2.07109436        0      -1.30183003      -0.57551837       0.31833533       1.57605798      -3.91938146      -3.97531712       1.57605798      -3.91938146      -3.97531712     -57.95009159
C       -0.15936750       1.11009937      -1.99760533        0       1.05962512      -0.45584059       1.02430757       1.07165401      -1.58583238      -2.08138940       1.07165401      -1.58583238      -2.08138940     -58.10234891
H       -1.67389076      -0.21605574       2.11709702        0      -0.19869036      -0.37586068       0.08844035      -0.89507565       0.51400598       0.89685834      -0.89507565       0.51400598       0.89685834     -14.12623732
H       -0.91842575      -1.62026927       1.19105710        0      -0.44457006       0.28170654      -0.47087411      -1.59654231       0.50850909       1.70177682      -1.59654231       0.50850909       1.70177682     -13.22961173
H       -0.36399614      -1.51402556       2.79693809        0      -0.85117478      -0.03661202       0.22276604      -0.51640835       1.12455502       0.93311119      -0.51640835       1.12455502       0.93311119     -13.96611079
H       -0.06589344       0.18962418      -2.65771471        0       0.89863320      -0.28964069      -0.10554913       0.35732070       1.26438145       2.15034972       0.35732070       1.26438145       2.15034972     -13.77959673
H       -0.59226244       2.07224465      -2.59913045        0      -0.00964348       0.48991125       0.14527067       1.21049313      -2.18731246       2.32296110       1.21049313      -2.18731246       2.32296110     -13.77050358
H        0.74624443       0.48118086      -2.24866384        0       0.26984338      -0.34949043      -0.10954006      -1.87957714       1.71510012      -1.21204055      -1.87957714       1.71510012      -1.21204055     -13.63453718
12
Properties=species:S:1:pos:R:3:molID:I:1:momenta:R:3:force_mace:R:3:forces:R:3:energies:R:1 Nmols=1 Comp=DMC(1) energy_mace=-587.1002894784397 energy=-587.1002894784397 stress="1.1400777098418133e-05 1.2593188665732422e-05 -7.314469060860675e-06 1.2593188665732422e-05 -3.422273103468321e-06 6.2199611531102004e-06 -7.314469060860675e-06 6.2199611531102004e-06 4.4299292846673427e-07" free_energy=-587.1002894784397 pbc="F F F"
C        0.08106419      -0.14521199      -0.07451155        0      -0.72892849       1.39175686      -1.55352575       5.36589176      -0.02722797       3.41742385       5.36589176      -0.02722797       3.41742385     -58.85426780
O        0.91532573      -0.79593858      -0.64248722        0       1.39577516      -0.58982155       1.74040853      -0.29973628      -2.25343374      -0.06504717      -0.29973628      -2.25343374      -0.06504717    -109.68375843
O        0.23603134      -0.05358486       1.37004925        0      -1.65068044       0.79786614       0.17062595      -4.40969714      -3.49434495      -0.96023967      -4.40969714      -3.49434495      -0.96023967    -109.57042110
O       -0.37577957       0.88510388      -0.63571987        0      -0.32435188      -0.42383522       0.06847589      -1.89811505       1.31320856      -0.75442144      -1.89811505       1.31320856      -0.75442144    -110.67854450
C       -0.92005592      -0.93801940       1.99605640        0      -1.33358165      -0.23437528      -1.00065255      -0.16149431       3.45978969      -0.22818144      -0.16149431       3.45978969      -0.22818144     -57.80974078
C       -0.00608530       1.01489379      -1.99844434        0       2.04642147      -1.29549981       0.78005098      -0.07745086       2.75076564       0.19067370      -0.07745086       2.75076564       0.19067370     -57.86722432
H       -1.69516942      -0.22140616       2.23353613        0       0.34564903       0.23106937      -0.06731151      -0.09784064       1.18543572      -0.14829205      -0.09784064       1.18543572      -0.14829205     -13.68926139
H       -1.62080175      -1.49418160       1.39424624        0      -0.42183657      -0.22872993       0.23534383       1.40756768      -0.88154053      -0.59186029       1.40756768      -0.88154053      -0.59186029     -13.94281446
H       -0.79771688      -1.25555325       2.99336986        0       0.32265265       0.21703560      -0.25062946       1.35875377      -1.14003652       0.28780175       1.35875377      -1.14003652       0.28780175     -14.03846779
H        0.25295225       0.10228756      -2.49884975        0       0.03060349      -0.60092208      -0.13499871       0.62956124       1.61322867      -0.39529538       0.62956124       1.61322867      -0.39529538     -13.75926303
H       -0.54557765       2.02199429      -2.00951355        0      -0.29957361       0.39236784       0.12174170       0.59836890      -1.26845200      -2.01261062       0.59836890      -1.26845200      -2.01261062     -13.46457309
H        1.00326894       0.82416939      -2.44243454        0       0.61785084       0.34308807      -0.10952890      -2.41580905      -1.25739257       1.26004876      -2.41580905      -1.25739257       1.26004876     -13.74195281
12
Properties=species:S:1:pos:R:3:molID:I:1:momenta:R:3:force_mace:R:3:forces:R:3:energies:R:1 Nmols=1 Comp=DMC(1) energy_mace=-588.5242874773863 energy=-588.5242874773863 stress="3.364667335709154e-06 -5.207998867409648e-06 -4.241929653190728e-08 -5.207998867409648e-06 -2.239523126889582e-06 3.828613933357233e-06 -4.241929653190728e-08 3.828613933357233e-06 -4.030490208753035e-06" free_energy=-588.5242874773863 pbc="F F F"
C        0.22873275      -0.09805780      -0.05660719        0       3.22737310      -0.39540746       1.68475520      -0.51152142       0.64841780       2.18308562      -0.51152142       0.64841780       2.18308562     -59.15825088
O        0.96946147      -0.87572118      -0.54847884        0       0.32940185      -1.93588285       1.69492261       0.20819671      -0.15996528      -0.89256574       0.20819671      -0.15996528      -0.89256574    -109.99191432
O        0.06037580      -0.10534863       1.34504055        0      -3.56705979      -1.19593993      -1.32497148       0.92626175       0.65200911      -2.55599487       0.92626175       0.65200911      -2.55599487    -110.12368159
O       -0.46210906       0.88946772      -0.66945149        0      -1.31668096       0.38738706      -1.01550272       1.08094334      -0.98056548      -0.23220760       1.08094334      -0.98056548      -0.23220760    -110.62911605
C       -0.99745445      -0.82962387       1.93275259        0       0.21484451       2.30684750      -0.07206585       3.75910094      -1.05952468       1.10309972       3.75910094      -1.05952468       1.10309972     -58.05741001
C        0.06173792       1.04630548      -1.94128009        0      -0.59966979       1.55312120       0.22501145       3.81558891      -2.49698454      -2.08695099       3.81558891      -2.49698454      -2.08695099     -57.79136851
H       -1.48142492       0.04600002       2.23479404        0      -0.09538755      -0.31743970       0.28784345      -1.99687422      -0.16899575       0.88084080      -1.99687422      -0.16899575       0.88084080     -13.77388911
H       -1.24974940      -1.66622625       1.31964480        0       0.74997267      -0.03446317      -0.31080965      -1.47506973       0.02106699      -0.83396430      -1.47506973       0.02106699      -0.83396430     -13.96964289
H       -0.33127062      -1.36017970       2.68379210        0       0.03766105       0.01393396      -0.47137435      -1.50672176       0.58416002       0.62370223      -1.50672176       0.58416002       0.62370223     -13.58136467
H        0.50941911       0.23981397      -2.54341157        0       0.22839913      -0.32557462      -0.10138556      -0.76332994      -0.30439528       1.01942596      -0.76332994      -0.30439528       1.01942596     -13.80308656
H       -0.34179899       1.75091462      -2.55351602        0       0.12004344      -0.00994181      -1.01012864      -1.15867517       1.98449783      -0.45217718      -1.15867517       1.98449783      -0.45217718     -13.97974515
H        1.16947113       0.72589949      -2.21810690        0       0.67110235      -0.04664017       0.41370553      -2.37789944       1.28027927       1.24370634      -2.37789944       1.28027927       1.24370634     -13.66481774
12
Properties=species:S:1:pos:R:3:molID:I:1:momenta:R:3:force_mace:R:3:forces:R:3:energies:R:1 Nmols=1 Comp=DMC(1) energy_mace=-587.6200225493445 energy=-587.6200225493445 stress="1.9700627070939672e-06 -7.534581437134616e-06 3.2406807178675316e-06 -7.534581437134616e-06 5.574403426585509e-06 -3.4173434430127936e-06 3.2406807178675316e-06 -3.4173434430127936e-06 -6.343422462171582e-06" free_energy=-587.6200225493445 pbc="F F F"
C        0.38598052      -0.08605300       0.04794785        0       0.33880046      -0.12490416      -0.00646908      -2.26360602      -1.98399670      -5.03803993      -2.26360602      -1.98399670      -5.03803993     -58.91626666
O        0.99932308      -1.00981974      -0.47543563        0       1.07798634      -1.82716017       0.59877412      -0.62220613       2.99499138       0.60387972      -0.62220613       2.99499138       0.60387972    -109.78744199
O       -0.03894409      -0.08154415       1.23719717        0      -0.38357368       2.07322651      -0.70561219       1.22402567       3.05431799       3.58836727       1.22402567       3.05431799       3.58836727    -110.28976572
O       -0.47962068       0.89584018      -0.71171604        0       0.69059316      -0.41490691      -0.27848114       2.12947466      -1.20483888       0.66746599       2.12947466      -1.20483888       0.66746599    -109.83163656
C       -0.95908304      -0.76399817       1.94689535        0      -1.16671877      -0.50907647       1.18980375      -1.19870707      -1.63689049       2.65441499      -1.19870707      -1.63689049       2.65441499     -57.93556381
C        0.06146782       1.11068077      -2.03268963        0      -0.52014358       0.14057836      -0.85364251       3.63649870      -5.34751518       4.81980664       3.63649870      -5.34751518       4.81980664     -58.06385264
H       -1.85635143      -0.35927596       2.41962992        0       0.15242198      -0.31954227      -0.46451086       0.25102863       1.73450569      -0.24626817       0.25102863       1.73450569      -0.24626817     -13.83948792
H       -1.41786582      -1.38968687       1.27675707        0      -0.64020532       0.40595028       0.07291050      -0.80200676      -2.30190330      -1.54495360      -0.80200676      -2.30190330      -1.54495360     -13.71697428
H       -0.56912841      -1.30334959       2.85763317        0      -0.15338548       0.33128202       0.22814748       0.51416579       0.27154207      -1.21744666       0.51416579       0.27154207      -1.21744666     -13.86702045
H        0.53934063       0.13531528      -2.24216199        0       0.24572052      -0.31564094       0.11617160       0.21739480       2.41202032      -0.29927010       0.21739480       2.41202032      -0.29927010     -13.61896583
H       -0.39035368       1.67289277      -2.67767014        0      -0.31560909       0.20138251       0.22602451      -2.14830697       2.58717720      -2.54626894      -2.14830697       2.58717720      -2.54626894     -14.09789570
H        1.11735795       0.97596728      -1.84858766        0       0.67411344       0.35881124      -0.12311617      -0.93775528      -0.57941009      -1.44168720      -0.93775528      -0.57941009      -1.44168720     -13.65515098
12
Properties=species:S:1:pos:R:3:molID:I:1:momenta:R:3:force_mace:R:3:forces:R:3:energies:R:1 Nmols=1 Comp=DMC(1) energy_mace=-587.9398740987181 energy=-587.9398740987181 stress="1.3616364387381274e-05 -3.2918646419588694e-06 -9.318820676298165e-06 -3.2918646419588694e-06 9.92937079807044e-06 2.3591513556675437e-06 -9.318820676298165e-06 2.3591513556675437e-06 2.0001152284059917e-06" free_energy=-587.9398740987181 pbc="F F F"
C        0.33512602      -0.19186530      -0.10264922        0      -1.45856426      -1.55696645      -1.77481544      -1.81930837       1.37688405       3.27694443      -1.81930837       1.37688405       3.27694443     -59.01517334
O        1.07389557      -1.05858684      -0.41135249        0       0.96641742      -0.01020063       1.04705627      -0.28685915       0.47874141      -0.86068545      -0.28685915       0.47874141      -0.86068545    -110.05087024
O       -0.05323510       0.09227944       1.24291635        0      -0.84152167       2.23427762       0.26133143      -0.52198302      -2.52888051      -0.46186404      -0.52198302      -2.52888051      -0.46186404    -109.56834042
O       -0.36855733       0.81818477      -0.72499597        0       2.85255486      -2.50220079       0.38214368       1.53013488      -2.17277960       1.30195309       1.53013488      -2.17277960       1.30195309    -110.61296916
C       -1.06771121      -0.80149786       2.02505837        0      -1.96685243       0.90743831       0.19996666      -0.39427943       5.20653280      -0.41564235      -0.39427943       5.20653280      -0.41564235     -57.86658299
C       -0.00186598       1.09171369      -1.98763890        0      -1.01807757       0.51714081       0.78661172       7.65676009      -2.58127853      -2.50758351       7.65676009      -2.58127853      -2.50758351     -57.75653127
H       -1.88882174       0.12299997       2.14185504        0       0.47640747       0.25485471      -0.13277234       1.54070220      -2.50298883       0.32999779       1.54070220      -2.50298883       0.32999779     -13.60088830
H       -1.56093771      -1.51915314       1.40523107        0       0.66164036      -0.31021864       0.12752926       0.52623507      -0.51787010      -0.21362898       0.52623507      -0.51787010      -0.21362898     -14.20210465
H       -0.60453848      -1.01883573       3.00325719        0      -0.11348733       0.25212529      -0.05571253      -0.34535890      -0.16936811      -0.94194782      -0.34535890      -0.16936811      -0.94194782     -14.18404902
H        0.89204447       0.43187186      -2.52808981        0       0.15620528       0.10517724      -0.67616320      -3.16682307       1.36591707       1.35965945      -3.16682307       1.36591707       1.35965945     -13.53086331
H       -0.66724724       1.66204963      -2.40660672        0      -0.10341382      -0.38757319       0.38067608      -3.15649368       2.13596463      -2.31715616      -3.15649368       2.13596463      -2.31715616     -13.77173997
H        1.08775841       1.26059698      -2.33495311        0       0.38869169       0.49614573      -0.54585158      -1.56272661      -0.09087427       1.44995355      -1.56272661      -0.09087427       1.44995355     -13.77976143
12
Properties=species:S:1:pos:R:3:molID:I:1:momenta:R:3:force_mace:R:3:forces:R:3:energies:R:1 Nmols=1 Comp=DMC(1) energy_mace=-586.9972878349387 energy=-586.9972878349387 stress="-4.7529764650773855e-06 1.093012284848563e-06 -8.328948356817102e-06 1.093012284848563e-06 3.4992105763745616e-07 1.0350691318795493e-05 -8.328948356817102e-06 1.0350691318795493e-05 8.881892075481793e-06" free_energy=-586.9972878349387 pbc="F F F"
C        0.24697489      -0.31899160      -0.09039223        0       0.19412049      -2.34258861       2.63049157       3.32007961      -0.42631308       3.96909601       3.32007961      -0.42631308       3.96909601     -58.88106367
O        1.12967035      -1.05552503      -0.37405546        0       0.61680201      -0.16339808      -0.05320720      -0.47330083      -1.25321021      -0.02808765      -0.47330083      -1.25321021      -0.02808765    -109.86738724
O       -0.11625542       0.12539263       1.24615088        0      -0.82660691      -0.66665695      -0.40169990      -0.10018677      -2.43073409      -0.80823817      -0.10018677      -2.43073409      -0.80823817    -109.54992654
O       -0.19202584       0.65145708      -0.70236498        0       1.91057223      -1.42222246      -0.36214842      -2.48314666       3.91432957      -3.93910111      -2.48314666       3.91432957      -3.93910111    -110.33382798
C       -1.15506862      -0.64835962       1.98641653        0      -0.00320164       2.66312534      -0.35950533       1.73427382       4.75802540       1.61179532       1.73427382       4.75802540       1.61179532     -57.97038140
C       -0.01286972       1.15075620      -2.03681663        0      -1.56705721       0.99120795      -1.08882894       2.89584811      -2.49814321      -1.24561438       2.89584811      -2.49814321      -1.24561438     -57.68148651
H       -1.88227155       0.35623787       2.13021109        0      -0.52708279       0.05695716      -0.06329850       0.62956567      -3.65056780      -0.42465152       0.62956567      -3.65056780      -0.42465152     -13.54260754
H       -1.06636699      -1.59827030       1.50898492        0       0.01008233       0.40416063       0.15419760      -1.58481283      -0.68322797      -0.28796522      -1.58481283      -0.68322797      -0.28796522     -14.00414714
H       -0.68781476      -0.75399148       3.01877459        0      -0.11192980       0.12617404      -0.12890242      -0.68615136       0.05603091      -0.94858039      -0.68615136       0.05603091      -0.94858039     -13.89601820
H        0.60685921       0.77218068      -2.96542275        0       0.02469844       0.01632824      -0.67768590      -1.44495357       1.39891560       4.00343590      -1.44495357       1.39891560       4.00343590     -13.60107956
H       -0.87132502       1.58723910      -2.27207306        0       0.11774777      -0.20018534       0.13995883      -3.02174841       1.29487092      -1.03293487      -3.02174841       1.29487092      -1.03293487     -13.87601961
H        0.82474665       1.68922280      -2.26171713        0       0.16185508       0.53709809       0.21062861       1.21453322      -0.47997603      -0.86915391       1.21453322      -0.47997603      -0.86915391     -13.79334245
12
Properties=species:S:1:pos:R:3:molID:I:1:momenta:R:3:force_mace:R:3:forces:R:3:energies:R:1 Nmols=1 Comp=DMC(1) energy_mace=-586.4884504280508 energy=-586.4884504280508 stress="4.576763121553022e-06 9.044145647539056e-07 -9.184486609230702e-07 9.044145647539056e-07 -2.2540181204907874e-06 -1.9993046831596486e-06 -9.184486609230702e-07 -1.9993046831596486e-06 8.360285357389713e-06" free_energy=-586.4884504280508 pbc="F F F"
C        0.32777477      -0.46417542       0.13232701        0       1.95382045      -0.70198646       1.13241739       1.43390713       2.00786962      -5.13170033       1.43390713       2.00786962      -5.13170033     -58.58002185
O        1.16649617      -1.12226110      -0.37194003        0       0.20985411      -2.11980095       0.95509266       0.08844559      -1.76943901       1.34084637       0.08844559      -1.76943901       1.34084637    -109.92082079
O       -0.10576792       0.04819796       1.19978882        0       0.83451717      -1.10663190      -0.45760302       0.31298615       1.08515248       2.02897156       0.31298615       1.08515248       2.02897156    -110.47339587
O       -0.13970700       0.61874935      -0.77838602        0      -0.08491202       0.53565974      -1.51438015      -1.37821579       0.79770846      -0.99834646      -1.37821579       0.79770846      -0.99834646    -109.42074339
C       -1.11967764      -0.36752999       1.97437459        0      -0.30353758       1.75508648      -0.37447975      -5.21881455      -3.83567423       2.08621194      -5.21881455      -3.83567423       2.08621194     -57.85534254
C       -0.13529918       1.21816143      -2.08358156        0      -2.72865233       0.82735195       0.50850239       2.86782813      -1.74417582      -1.73864118       2.86782813      -1.74417582      -1.73864118     -57.93258028
H       -2.27618776      -0.16052379       1.86547097        0      -0.16942041      -0.10529558      -0.56372057       3.11000647       1.00167801      -0.02295936       3.11000647       1.00167801      -0.02295936     -13.53379419
H       -1.57132617      -1.37746974       1.68263595        0      -0.26844076       0.48964271       0.41506860       1.40433089       0.97183136       0.32584565       1.40433089       0.97183136       0.32584565     -13.52081237
H       -0.87676444      -0.44333000       3.06859192        0      -0.11153909       0.41591262       0.17144069      -0.17734448       0.54951252      -1.41490238      -0.17734448       0.54951252      -1.41490238     -13.97299073
H        0.52161326       0.87426120      -3.04487698        0       0.28269424      -0.22569428      -0.15668360      -2.31397035      -0.19860744       3.22670862      -2.31397035      -0.19860744       3.22670862     -13.47698384
H       -1.06029626       1.61503468      -2.35225144        0       0.35535320      -0.18755514      -0.06199673      -1.05456494      -0.18797118      -0.08543650      -1.05456494      -0.18797118      -0.08543650     -14.11642396
H        0.61060720       1.92876668      -2.13723553        0       0.03026303       0.42331080      -0.05365791       0.92540575       1.32211523       0.38340208       0.92540575       1.32211523       0.38340208     -13.68454062
12
Properties=species:S:1:pos:R:3:molID:I:1:momenta:R:3:force_mace:R:3:forces:R:3:energies:R:1 Nmols=1 Comp=DMC(1) energy_mace=-587.3344522024294 energy=-587.3344522024294 stress="1.1199291779205009e-05 -5.8203279985460535e-06 5.518600511314682e-06 -5.8203279985460535e-06 1.188619660113023e-05 1.266233817795669e-06 5.518600511314682e-06 1.266233817795669e-06 1.1988467012712284e-05" free_energy=-587.3344522024294 pbc="F F F"
C        0.46070134      -0.38213246       0.06546015        0       0.73557387       2.00435872      -1.88016322      -0.65554178      -0.47179620      -1.83201721      -0.65554178      -0.47179620      -1.83201721     -58.97020306
O        1.19417843      -1.27012637      -0.29675975        0       0.80063771      -2.77360969       0.94867050      -1.46662092       1.86397139       0.88225572      -1.46662092       1.86397139       0.88225572    -109.91146247
O       -0.05671104       0.00328577       1.22056716        0       1.04338416       0.16122074       0.76153057       1.90463406       0.12077319       0.46035178       1.90463406       0.12077319       0.46035178    -110.14848432
O       -0.16559471       0.64756850      -0.85937480        0      -0.41530688      -0.10121326       0.10025605      -0.17056485      -0.31811262       2.69137044      -0.17056485      -0.31811262       2.69137044    -109.64362203
C       -1.17177417      -0.29944045       2.04271067        0      -0.66629963       0.86343461       0.95549808      -3.44347528      -0.27783134      -2.61804212      -3.44347528      -0.27783134      -2.61804212     -57.90113679
C       -0.17673856       1.25762991      -2.09826934        0      -0.16709392       0.24079426      -0.46146204      -2.73807378      -3.66665010      -1.06438727      -2.73807378      -3.66665010      -1.06438727     -58.12484677
H       -2.07569178      -0.34042767       1.22677706        0      -0.29136487      -0.41253275      -0.38300853       1.39115761      -0.03289264       2.78027577       1.39115761      -0.03289264       2.78027577     -13.47545385
H       -1.93622231      -1.08258298       1.72647512        0      -0.29173246       0.27094410      -0.21500634       1.90172476       1.21376437       0.29901674       1.90172476       1.21376437       0.29901674     -13.84641420
H       -0.96921719       0.23723616       3.03054090        0      -0.11203396       0.65798831      -0.09557355      -0.38408006      -1.06660269      -1.61100502      -0.38408006      -1.06660269      -1.61100502     -13.87033426
H        0.11222391       0.32838997      -2.68573845        0      -0.38164749      -0.65436933      -0.14737411       0.34624923       2.13591073      -0.39591264       0.34624923       2.13591073      -0.39591264     -13.72565531
H       -1.30746999       1.47156043      -2.42045304        0       0.36673813      -0.30481245       0.25162648       1.84556280      -0.60361674       0.74765741       1.84556280      -0.60361674       0.74765741     -13.72772345
H        0.21754634       2.20960553      -1.97033962        0      -0.62085466       0.04779675       0.16500612       1.46902820       1.10308264      -0.33956360       1.46902820       1.10308264      -0.33956360     -13.98911569
12
Properties=species:S:1:pos:R:3:molID:I:1:momenta:R:3:force_mace:R:3:forces:R:3:energies:R:1 Nmols=1 Comp=DMC(1) energy_mace=-587.5813173122299 energy=-587.5813173122299 stress="1.6283614829525524e-05 -5.64206236718526e-06 -7.434793876837092e-06 -5.64206236718526e-06 1.4240752776661836e-05 -2.5153958868250255e-06 -7.434793876837092e-06 -2.5153958868250255e-06 1.0943964276189476e-05" free_energy=-587.5813173122299 pbc="F F F"
C        0.53423919      -0.31333036      -0.11293863        0       0.97563494      -0.74599071      -1.85434536      -1.16245008      -1.84835443       2.52888691      -1.16245008      -1.84835443       2.52888691     -58.84364009
O        1.21481606      -1.32382223      -0.21670344        0      -0.66604305       1.61213874       1.11792489      -1.67619772       3.37732781      -0.91350491      -1.67619772       3.37732781      -0.91350491    -109.80073245
O        0.03261564       0.00944364       1.24759266        0       1.47855446      -0.55129111      -0.06656779      -0.47801763      -0.98063365      -0.14519955      -0.47801763      -0.98063365      -0.14519955    -109.45328328
O       -0.19933097       0.62281851      -0.76214104        0      -0.40255807      -0.54746932       2.12022680       1.24519044      -0.96061452      -0.94320684       1.24519044      -0.96061452      -0.94320684    -110.16667876
C       -1.26197490      -0.20910060       1.98099000        0      -0.19481146       1.43274944      -2.34816499       1.06713712       0.54856905      -1.13953374       1.06713712       0.54856905      -1.13953374     -57.72793205
C       -0.21651112       1.15842257      -2.10128084        0      -1.59497198      -0.87080113       0.79207619      -3.49505400      -0.59358821      -0.32358013      -3.49505400      -0.59358821      -0.32358013     -58.02137552
H       -2.09401022      -0.34167929       1.44694458        0      -0.37921628       0.13321537       0.02176736      -1.38066581      -1.79652082      -1.58670941      -1.38066581      -1.79652082      -1.58670941     -13.89431810
H       -1.88706858      -1.16683711       1.86632605        0       0.22369676      -0.57062104       0.57503519       1.78191948       2.86704491       0.29813076       1.78191948       2.86704491       0.29813076     -13.88478034
H       -1.36042587       0.66257497       2.61540211        0      -0.32225778       0.36849970       0.07644722       0.67356064      -0.91532285       0.68504000       0.67356064      -0.91532285       0.68504000     -14.00397893
H        0.08379612       0.60248355      -3.02222233        0       0.55590226       0.40591459      -0.54842542       0.13199177      -0.21755651       1.50442469       0.13199177      -0.21755651       1.50442469     -14.10314781
H       -1.41802350       1.34303675      -2.22629856        0       0.06652113       0.10576259       0.38573686       2.63125576      -0.32813718       0.01467315       2.63125576      -0.32813718       0.01467315     -13.63136764
H        0.21481760       2.12086311      -2.07077576        0       0.25954906      -0.77210713      -0.27171095       0.66133003       0.84778640       0.02057906       0.66133003       0.84778640       0.02057906     -14.05008235
12
Properties=species:S:1:pos:R:3:molID:I:1:momenta:R:3:force_mace:R:3:forces:R:3:energies:R:1 Nmols=1 Comp=DMC(1) energy_mace=-587.6518470672547 energy=-587.6518470672547 stress="1.2929845660944136e-05 1.4648059894545219e-06 -2.7519647277198176e-06 1.4648059894545219e-06 -4.061438281309844e-06 -6.333507256136807e-06 -2.7519647277198176e-06 -6.333507256136807e-06 2.9001791581534457e-06" free_energy=-587.6518470672547 pbc="F F F"
C        0.47446461      -0.30689512      -0.09185863        0      -2.42251990       1.00991089       2.72029533      -0.36676294      -1.16444109       3.69671489      -0.36676294      -1.16444109       3.69671489     -58.96989659
O        1.19423968      -1.23391628      -0.21421486        0       0.78378741       0.55346426      -1.30154562       0.35642684       0.13951973      -1.61996025       0.35642684       0.13951973      -1.61996025    -109.90895122
O        0.07754709      -0.02418779       1.26455969        0      -0.14823412      -0.38781288       0.47650844      -0.25644265       0.02480158      -0.27765970      -0.25644265       0.02480158      -0.27765970    -109.78848597
O       -0.20143810       0.58492643      -0.69753546        0      -0.34926235      -0.61624803      -0.00766054      -1.50581556       1.25689107      -1.65595454      -1.50581556       1.25689107      -1.65595454    -110.30518784
C       -1.24946660      -0.06734911       1.75806114        0       1.33772812       2.09773868      -2.69233070       1.23882729      -2.77781875       2.52696358       1.23882729      -2.77781875       2.52696358     -57.74339712
C       -0.28279325       1.05149414      -2.08452059        0       0.54666679      -0.34713154       0.91292080      -0.45804943       2.93485495       2.00456744      -0.45804943       2.93485495       2.00456744     -57.96653942
H       -1.95711770      -0.79279344       1.51627230        0       0.49044218      -0.80397081       0.04984555      -0.16263731       0.57530168      -0.33091217      -0.16263731       0.57530168      -0.33091217     -14.06519160
H       -1.51567566      -1.10462408       2.24775091        0      -0.00555616      -0.37772819       0.01299121       0.35549649       0.46768831      -1.77837889       0.35549649       0.46768831      -1.77837889     -13.57663999
H       -1.28722009       0.49001434       2.66223071        0       0.24790753       0.23563180       0.02338809      -0.34831969       1.68356532      -0.84047178      -0.34831969       1.68356532      -0.84047178     -13.85341797
H        0.33367003       0.47512127      -2.69982710        0      -0.03604752      -1.03906797       0.25062428      -0.44438131      -2.07950141      -1.38825254      -0.44438131      -2.07950141      -1.38825254     -13.91642879
H       -1.40505407       1.46368773      -2.16007047        0       0.08376770       0.02005195      -0.51492834       2.76966191      -1.38662121      -0.48297934       2.76966191      -1.38662121      -0.48297934     -13.86082871
H        0.46140790       1.89722743      -2.08539395        0      -0.52867969      -0.34483815       0.06989150      -1.17800362       0.32575981       0.14632329      -1.17800362       0.32575981       0.14632329     -13.69688186
12
Properties=species:S:1:pos:R:3:molID:I:1:momenta:R:3:force_mace:R:3:forces:R:3:energies:R:1 Nmols=1 Comp=DMC(1) energy_mace=-587.6657126857671 energy=-587.6657126857671 stress="-1.0692937517669148e-05 3.4924288813175436e-06 1.617508315620327e-05 3.4924288813175436e-06 5.735179595065134e-07 -9.297946317413519e-06 1.617508315620327e-05 -9.297946317413519e-06 -1.477778707807561e-05" free_energy=-587.6657126857671 pbc="F F F"
C        0.34248780      -0.36063817       0.12929448        0       0.05770126      -2.15666152       0.71282249       3.19193224      -0.32614761      -5.68164328       3.19193224      -0.32614761      -5.68164328     -59.10451584
O        1.17670629      -1.12326661      -0.30138964        0      -1.60163879       3.32950134      -1.33089927      -1.07237743       0.25236044       0.32276923      -1.07237743       0.25236044       0.32276923    -109.72676441
O        0.11546267      -0.04642915       1.29724995        0       2.03640799       0.34837355       0.69595429       1.85858643       1.18237501       2.34667999       1.85858643       1.18237501       2.34667999    -110.58819817
O       -0.26969099       0.59159708      -0.70028920        0      -2.10533986       0.34947362       0.16964973      -1.63057962       0.68970852       1.92916332      -1.63057962       0.68970852       1.92916332    -110.01101075
C       -1.17942739      -0.03187977       1.66701535        0       0.97534608      -0.04816983       0.74026991      -0.27377581       0.89055327       1.69130542      -0.27377581       0.89055327       1.69130542     -57.83968443
C       -0.17792272       0.94462207      -2.03981372        0       1.65349194      -1.57735776       0.61132070      -1.40283794       4.60582895      -0.05359652      -1.40283794       4.60582895      -0.05359652     -58.02962786
H       -1.68692114      -0.85034730       1.28113528        0      -0.56483569       0.10127811      -0.55213466      -0.88804265      -0.18580524       0.13459338      -0.88804265      -0.18580524       0.13459338     -13.74660005
H       -1.27436053      -0.95070271       2.12800125        0       0.23625974       0.13308618       0.02061681      -1.50694103      -0.93949070       0.37116719      -1.50694103      -0.93949070       0.37116719     -13.60395581
H       -1.37035432       0.93351983       2.12510385        0      -0.49918023       0.61614103      -0.78119885      -0.83619839      -0.30278751      -0.30402022      -0.83619839      -0.30278751      -0.30402022     -13.92268635
H       -0.05883381       0.06281093      -2.47268653        0      -0.09854352       0.02035728       0.07310421       2.46177483      -3.43384504      -2.47421068       2.46177483      -3.43384504      -2.47421068     -13.59271504
H       -1.18904893       1.13700464      -2.62815338        0      -0.10020652      -0.36663307      -0.23541875       0.90254570       0.48102025       1.84329244       0.90254570       0.48102025       1.84329244     -13.67056644
H        0.39673301       2.00034488      -2.12249393        0       0.01053761      -0.74938894      -0.12408660      -0.80408634      -2.91377035      -0.12550027      -0.80408634      -2.91377035      -0.12550027     -13.82938753
12
Properties=species:S:1:pos:R:3:molID:I:1:momenta:R:3:force_mace:R:3:forces:R:3:energies:R:1 Nmols=1 Comp=DMC(1) energy_mace=-587.8820643576325 energy=-587.8820643576325 stress="1.7389886256124375e-05 2.2799684739569313e-06 -3.0790410119312258e-06 2.2799684739569313e-06 -1.3397283191764488e-06 -8.394827438474932e-06 -3.0790410119312258e-06 -8.394827438474932e-06 5.192523708025755e-06" free_energy=-587.8820643576325 pbc="F F F"
C        0.31089386      -0.37161111       0.09683772        0      -0.53681867       2.39919049      -0.56050677       2.62151263       2.33364328      -1.48802535       2.62151263       2.33364328      -1.48802535     -59.05513748
O        1.15317976      -1.05095784      -0.41979772        0       0.79682564      -1.01166664      -3.24069273      -1.06241030      -0.17082726      -0.03226703      -1.06241030      -0.17082726      -0.03226703    -109.90456620
O        0.25841423      -0.04348175       1.37930498        0       1.72453012      -0.59983045       1.68318096      -2.44946575      -0.97468343       0.51835809      -2.44946575      -0.97468343       0.51835809    -110.35259936
O       -0.40971359       0.60083191      -0.62977176        0      -1.77549992      -0.12460777       1.37716413       1.19693365      -1.28468572      -0.69191304       1.19693365      -1.28468572      -0.69191304    -110.29809317
C       -1.17261564       0.05848785       1.73211218        0      -0.75026151       2.20560835       1.06729189      -0.02913871       0.20050004      -2.01334063      -0.02913871       0.20050004      -2.01334063     -57.46498365
C       -0.13795989       0.75766103      -2.02944460        0       1.05497366      -2.83068716      -0.49619866       1.75586938       2.81747622      -0.43846361       1.75586938       2.81747622      -0.43846361     -57.99451926
H       -1.78851821      -0.66032015       1.25032005        0       0.11121557      -0.51850893      -0.13574558       0.02183478      -1.41730363      -0.61076108       0.02183478      -1.41730363      -0.61076108     -13.67529164
H       -1.71845622      -0.78384999       2.05997996        0      -0.83278604       0.35757480       0.04118639       0.38158373       0.63136167       1.40506018       0.38158373       0.63136167       1.40506018     -13.99727547
H       -1.57382300       0.98338397       1.37319777        0       0.12866955       0.05807717      -0.31660306       0.34548699       0.98211963       1.49278268       0.34548699       0.98211963       1.49278268     -13.93237211
H        0.36656759       0.02529905      -2.59998939        0       0.15225621       0.23692473       0.40926737      -0.91849540      -1.99536496       0.24801992      -0.91849540      -1.99536496       0.24801992     -13.93806923
H       -1.09465968       1.18007735      -2.35129118        0      -0.19614453       0.44303463       0.10295640       0.83343154      -0.38177356      -0.53821036       0.83343154      -0.38177356      -0.53821036     -13.97542757
H        0.83850238       1.53279424      -2.40233064        0       0.12303991      -0.61510922       0.06869965      -2.69714252      -0.74046229       2.14876023      -2.69714252      -0.74046229       2.14876023     -13.29372922
12
Properties=species:S:1:pos:R:3:molID:I:1:momenta:R:3:force_mace:R:3:forces:R:3:energies:R:1 Nmols=1 Comp=DMC(1) energy_mace=-587.8208206476804 energy=-587.8208206476804 stress="2.235450467781942e-05 -8.052637067587436e-06 -3.0770624288965562e-06 -8.052637067587436e-06 6.202383459966781e-06 9.973557499749045e-06 -3.0770624288965562e-06 9.973557499749045e-06 1.157858048131391e-05" free_energy=-587.8208206476804 pbc="F F F"
C        0.39263251      -0.19852806       0.01546913        0       2.17523655       1.30794138      -0.65848515       0.92495179      -2.68563361       2.35309853       0.92495179      -2.68563361       2.35309853     -59.24523391
O        1.08013887      -1.06388587      -0.52414349        0      -2.60953470       1.17923460      -0.33713116      -1.20523260       2.45678405       1.46288996      -1.20523260       2.45678405       1.46288996    -109.82902844
O        0.29214864      -0.12602548       1.44838043        0      -1.06208495      -1.37987561       0.18296677      -2.05009522       1.01299582      -2.09954575      -2.05009522       1.01299582      -2.09954575    -109.75080194
O       -0.49050027       0.59434316      -0.57920125        0      -0.41004701      -0.29965303      -0.75852029       1.34857335      -0.76174561      -2.57356508       1.34857335      -0.76174561      -2.57356508    -110.38509157
C       -1.20851350       0.22709973       1.72634269        0       0.90403629       1.56864277      -0.65712902       2.94030354      -1.41695776       0.82953347       2.94030354      -1.41695776       0.82953347     -57.41234661
C       -0.06057692       0.58547687      -2.03527679        0       1.42728003      -2.15982708       0.81283655       1.57594859       0.85374401       1.12197155       1.57594859       0.85374401       1.12197155     -57.92861774
H       -1.59285581      -0.66088136       1.53412135        0      -0.38076841      -0.19199900       0.46537606      -2.48152584      -2.11340249      -0.87162355      -2.48152584      -2.11340249      -0.87162355     -13.75535984
H       -1.99292906      -0.35159456       2.21998848        0       0.11224278       0.13025453       0.63475720       1.39088321       0.10870304       0.63173575       1.39088321       0.10870304       0.63173575     -13.94322365
H       -1.40886928       1.16073450       1.45134657        0       0.23546340       0.24181339       0.27661500      -0.24405912       2.45028741      -0.66293815      -0.24405912       2.45028741      -0.66293815     -14.07966514
H        0.16420587      -0.51995572      -2.35813321        0      -0.92316729      -0.15022694       0.27718436      -0.67410727       2.46541810       0.39349944      -0.67410727       2.46541810       0.39349944     -13.89050880
H       -0.84395210       1.14933377      -2.62576382        0      -0.06637540      -0.22269285      -0.71518158       1.32060524      -0.80273921       0.75445177       1.32060524      -0.80273921       0.75445177     -14.10576269
H        1.04547702       1.19957379      -1.88340980        0       0.59771871      -0.02361216       0.47671125      -2.84624566      -1.56745375      -1.33950793      -2.84624566      -1.56745375      -1.33950793     -13.49518033
12
Properties=species:S:1:pos:R:3:molID:I:1:momenta:R:3:force_mace:R:3:forces:R:3:energies:R:1 Nmols=1 Comp=DMC(1) energy_mace=-588.1442871244536 energy=-588.1442871244536 stress="-2.0057799192494025e-06 4.209081116206552e-06 1.1570384980537893e-06 4.209081116206552e-06 -1.247010947444324e-05 2.625626221792872e-06 1.1570384980537893e-06 2.625626221792872e-06 -4.502057587082233e-06" free_energy=-588.1442871244536 pbc="F F F"
C        0.49437219      -0.12721489       0.10274881        0      -0.76709367       0.68483250       2.29956799      -3.63600869      -2.03606770      -0.75919515      -3.63600869      -2.03606770      -0.75919515     -58.82015782
O        1.00727278      -0.99966790      -0.54144698        0       0.32991998       0.09818055      -0.31316814       2.49230078      -0.37363005       1.63339631       2.49230078      -0.37363005       1.63339631    -109.73868088
O        0.16952992      -0.18136230       1.40078420        0      -2.60275771      -0.35866689      -1.65714481       1.12418641       0.19271172      -1.23004646       1.12418641       0.19271172      -1.23004646    -110.56372192
O       -0.47518826       0.58730950      -0.61872021        0       0.96569213      -0.06236002      -0.13308018       2.29828082       1.71078728      -0.08386931       2.29828082       1.71078728      -0.08386931    -110.23123765
C       -1.12802899       0.28712590       1.66502609        0       1.32617534       1.22900125      -0.96183793       3.04247916       1.11456680       0.75587346       3.04247916       1.11456680       0.75587346     -57.70969958
C       -0.02714537       0.44731408      -1.95929086        0      -0.84924806      -2.17210710       1.15751232      -1.10763818       0.55138222      -3.06196370      -1.10763818       0.55138222      -3.06196370     -58.06056977
H       -1.95543892      -0.18656139       1.79847214        0      -0.21980414       0.90923076       0.26631234      -2.10210849      -3.02095939       0.83020090      -2.10210849      -3.02095939       0.83020090     -13.85452108
H       -1.34581877      -0.16164162       2.56743175        0       0.42192540      -0.12833414       0.42904709      -1.71079909       0.19572594       0.51415795      -1.71079909       0.19572594       0.51415795     -13.75837994
H       -1.23710390       1.29732537       1.52113671        0       0.31374066      -0.30210292      -0.06348519       0.20705302       2.11334510      -0.47283383       0.20705302       2.11334510      -0.47283383     -13.95343333
H       -0.49498202      -0.54163520      -2.19488821        0      -0.09500749      -0.05708939      -0.20254595       1.30137693      -0.01608670      -0.42378752       1.30137693      -0.01608670      -0.42378752     -13.71331819
H       -0.46256004       1.05627703      -2.78006775        0       0.28916785       0.57033740      -0.08248466      -0.65936558       0.61297606       1.16855809      -0.65936558       0.61297606       1.16855809     -13.89284737
H        1.08850803       0.68001459      -2.17292134        0       0.88728971      -0.41092200      -0.73869288      -1.24975711      -1.04475128       1.12950927      -1.24975711      -1.04475128       1.12950927     -13.84771958
12
Properties=species:S:1:pos:R:3:molID:I:1:momenta:R:3:force_mace:R:3:forces:R:3:energies:R:1 Nmols=1 Comp=DMC(1) energy_mace=-588.5011975458619 energy=-588.5011975458619 stress="-2.1347363383474235e-05 4.9921146485958e-06 -6.696435880956586e-07 4.9921146485958e-06 -5.955992303786017e-06 1.0685434466789814e-05 -6.696435880956586e-07 1.0685434466789814e-05 -1.8805076613327458e-05" free_energy=-588.5011975458619 pbc="F F F"
C        0.37951409      -0.21821302       0.11250077        0      -0.95980088      -2.59969821      -2.46457467       0.51680947      -1.26787232      -2.33040400       0.51680947      -1.26787232      -2.33040400     -59.39389176
O        1.10299515      -0.99353442      -0.45579633        0       1.84723670       0.30237976       2.69364241       0.65548975      -0.40088103       1.49987498       0.65548975      -0.40088103       1.49987498    -109.72343637
O        0.07878587      -0.19871572       1.35462199        0      -0.26799213      -0.94006003       0.90364154       0.86392884      -1.48142300       2.22537077       0.86392884      -1.48142300       2.22537077    -110.63935689
O       -0.33247444       0.63262308      -0.62113345        0       2.90580359       1.17407418       0.21225112      -0.29852107      -0.52501146      -0.35276299      -0.29852107      -0.52501146      -0.35276299    -110.39034887
C       -1.10561915       0.40643133       1.67447908        0      -1.04329643       2.66040943       0.18788094       0.64339297       3.51327825      -0.99208826       0.64339297       3.51327825      -0.99208826     -57.68970371
C       -0.10179280       0.35431971      -2.04046060        0      -1.88653362      -0.45772283      -1.59227028      -3.50011230       1.87209911       1.04699778      -3.50011230       1.87209911       1.04699778     -57.98928771
H       -1.89250906      -0.01184069       2.12167221        0       0.25787347      -0.05302404      -0.25361548      -2.42975736      -1.97278590      -1.02905287      -2.42975736      -1.97278590      -1.02905287     -13.78969867
H       -1.64730687       0.25480733       2.56330982        0      -0.27673469       0.70502771       0.45903936       1.09305670       0.43711439       2.20163946       1.09305670       0.43711439       2.20163946     -13.76730055
H       -1.07193422       1.43725124       1.30222923        0       0.05700933      -0.36782667      -0.17770033      -0.48171535      -0.42947375      -0.06557202      -0.48171535      -0.42947375      -0.06557202     -13.80896644
H       -0.55917448      -0.52208010      -2.47288257        0      -0.48692637       0.13411298      -0.17603026      -1.15915243       0.34468565       0.50500254      -1.15915243       0.34468565       0.50500254     -13.83656147
H       -0.41974251       1.32695463      -2.33244599        0      -0.15508493       0.30190859       0.08559938       0.19364371       0.06238519      -1.84165043       0.19364371       0.06238519      -1.84165043     -13.84470426
H        0.79794530      -0.04631311      -2.18452805        0       0.00844596      -0.85958087       0.12213628       3.90293707      -0.15211512      -0.86735495       3.90293707      -0.15211512      -0.86735495     -13.62794085
12
Properties=species:S:1:pos:R:3:molID:I:1:momenta:R:3:force_mace:R:3:forces:R:3:energies:R:1 Nmols=1 Comp=DMC(1) energy_mace=-588.1801189941514 energy=-588.1801189941514 stress="-4.963689119950555e-06 -3.3787915643612655e-06 4.447370919323336e-06 -3.3787915643612655e-06 5.255071375788485e-06 1.8222084716329697e-06 4.447370919323336e-06 1.8222084716329697e-06 5.2156495968344854e-06" free_energy=-588.1801189941514 pbc="F F F"
C        0.26995248      -0.37339252       0.02475456        0      -1.24196622      -0.79499032       1.35696817       4.13944863       0.89990248       2.44478311       4.13944863       0.89990248       2.44478311     -59.03730368
O        1.23617726      -1.05861011      -0.32442764        0       2.31552031      -2.19695599       1.65919045      -3.10586707       0.89330883       0.21078103      -3.10586707       0.89330883       0.21078103    -109.75199608
O        0.05027304      -0.24931436       1.41230568        0      -1.14264250       0.04779311      -0.21012896      -2.66259981       1.35770791      -1.71796042      -2.66259981       1.35770791      -1.71796042    -110.02542537
O       -0.19299807       0.67801042      -0.68284414        0       1.80752008       0.17090164      -2.14527842      -0.76868850      -1.65945879      -0.84996254      -0.76868850      -1.65945879      -0.84996254    -110.31964311
C       -1.16061067       0.63299231       1.72551326        0       0.86864895       2.73425814      -1.05320942       4.87956211       0.22560531      -6.12328786       4.87956211       0.22560531      -6.12328786     -57.79936816
C       -0.21285660       0.31013883      -2.12424584        0      -1.40414737      -0.54808960      -0.15383577      -7.60382159       4.36713985       2.26793870      -7.60382159       4.36713985       2.26793870     -57.88452530
H       -1.94769348       0.06672877       1.90094409        0      -0.06889368       0.63336098       0.12526095      -1.69519980      -0.74638580       1.46643101      -1.69519980      -0.74638580       1.46643101     -13.89732558
H       -1.49755233       0.64419427       2.62611169        0      -0.26336707      -0.03494265       0.62880193      -1.39480904      -0.60622258       2.83122101      -1.39480904      -0.60622258       2.83122101     -13.92805437
H       -1.26288404       1.47082452       1.00833209        0      -0.32044799      -0.37574034       0.25746859       0.32416849      -0.65727858       1.14933893       0.32416849      -0.65727858       1.14933893     -14.03081092
H       -1.17409031      -0.20859525      -2.28355845        0      -0.48678405       0.29964743       0.60446146       0.98284639      -0.34796843      -0.16796956       0.98284639      -0.34796843      -0.16796956     -14.06113207
H       -0.25085471       1.24659965      -2.68333445        0       0.37302452      -0.09541451      -0.52330339      -0.46770134       0.41267669       0.07494830      -0.46770134       0.41267669       0.07494830     -13.90032229
H        0.64997287       0.00790230      -2.26197016        0      -0.43646500       0.16017210      -0.54639561       7.37266152      -4.13902691      -1.58626171       7.37266152      -4.13902691      -1.58626171     -13.54421207
12
Properties=species:S:1:pos:R:3:molID:I:1:momenta:R:3:force_mace:R:3:forces:R:3:energies:R:1 Nmols=1 Comp=DMC(1) energy_mace=-589.0196333438874 energy=-589.0196333438874 stress="4.740713061494735e-06 -6.076443244787596e-06 -4.935051836853748e-06 -6.076443244787596e-06 5.188596732734888e-06 -4.353618995637065e-06 -4.935051836853748e-06 -4.353618995637065e-06 4.6983578198401484e-06" free_energy=-589.0196333438874 pbc="F F F"
C        0.37260013      -0.39861134       0.11834877        0       2.72355745       0.30458598       0.17230598      -0.39420195       2.47300284      -0.54500507      -0.39420195       2.47300284      -0.54500507     -59.15571035
O        1.23751899      -1.13836186      -0.20302709        0      -1.12025966      -0.62894294       2.09613981      -0.33184716      -0.50699425       0.05617781      -0.33184716      -0.50699425       0.05617781    -109.94163783
O       -0.09265796      -0.22862897       1.37259362        0      -2.61855139      -0.13372780      -0.50546097       0.10766539      -0.31014624      -0.96522481       0.10766539      -0.31014624      -0.96522481    -110.47018721
O       -0.07620771       0.62514601      -0.79671053        0       1.93146259      -1.39928620      -1.22455794       0.59261353       0.00726986       1.67096916       0.59261353       0.00726986       1.67096916    -110.04894958
C       -1.08322549       0.73015885       1.69211207        0       0.06506757       0.33351150      -0.87832801      -0.25615633       0.29734991      -3.25109407      -0.25615633       0.29734991      -3.25109407     -57.82933185
C       -0.34869694       0.37363130      -2.16385528        0      -0.33835534       0.08801710      -1.07063848       1.49932257      -4.18581802       1.27417141       1.49932257      -4.18581802       1.27417141     -58.16083174
H       -1.89899670       0.40023355       2.36182207        0       0.23140942       0.26255480       0.16770892      -0.05200597      -0.40667531      -1.31397645      -0.05200597      -0.40667531      -1.31397645     -13.84121814
H       -1.32438578       0.74579366       2.63565559        0       0.54728777       0.47335439       0.61139627       0.25960008       0.80131138       3.58281856       0.25960008       0.80131138       3.58281856     -13.77565785
H       -1.24513279       1.59570092       1.01430622        0       0.36371205       0.04275238       0.38138420       0.53552472      -1.13149385       0.54672351       0.53552472      -1.13149385       0.54672351     -14.02979933
H       -1.31474291      -0.11780835      -2.04490694        0      -0.11507296      -0.01016550      -0.39655350      -0.22695458       0.26963049      -1.31382804      -0.22695458       0.26963049      -1.31382804     -13.88159552
H       -0.20563982       1.22227310      -2.75271393        0      -0.18138831       0.49854209       0.30815085      -0.31621885       1.26193376      -0.43799974      -0.31621885       1.26193376      -0.43799974     -14.11629011
H        0.42183074      -0.45691033      -2.56026248        0      -1.48886918       0.16880421       0.33845287      -1.41734144       1.43062943       0.69626772      -1.41734144       1.43062943       0.69626772     -13.76842383
12
Properties=species:S:1:pos:R:3:molID:I:1:momenta:R:3:force_mace:R:3:forces:R:3:energies:R:1 Nmols=1 Comp=DMC(1) energy_mace=-587.4632167090037 energy=-587.4632167090037 stress="8.840646724642188e-06 -4.863319346307724e-06 -7.219140993765074e-07 -4.863319346307724e-06 9.241837616182222e-06 4.491296012095597e-06 -7.219140993765074e-07 4.491296012095597e-06 1.5202177021865128e-06" free_energy=-587.4632167090037 pbc="F F F"
C        0.47469327      -0.28685123       0.13234718        0      -0.18088416       1.55416854      -0.18525063       0.25098654      -4.02627968      -1.01020165       0.25098654      -4.02627968      -1.01020165     -59.30079331
O        1.24273988      -1.22658053      -0.10586627        0       1.04501690      -1.57126868       1.27817757      -1.35291208       2.42549270       0.88127877      -1.35291208       2.42549270       0.88127877    -109.58760985
O       -0.19112729      -0.25058221       1.32104312        0      -0.67982643      -1.08687419      -1.19298532       0.83650029      -1.02470376      -0.64234421       0.83650029      -1.02470376      -0.64234421    -110.41054067
O        0.01169699       0.52503216      -0.80697285        0       0.80938994      -1.12981189       0.68610163      -1.45171904       1.62789687      -1.07361911      -1.45171904       1.62789687      -1.07361911    -110.10183594
C       -1.05435675       0.76551062       1.68854267        0       0.89996114       0.90794209       0.42459584       0.10479277       1.11422388      -4.51768741       0.10479277       1.11422388      -4.51768741     -57.77786796
C       -0.46334186       0.40948730      -2.20433067        0      -2.23393549      -0.74141435      -0.71162956      -0.83517218      -3.89245694      -0.79349973      -0.83517218      -3.89245694      -0.79349973     -57.75210773
H       -1.70196442       0.71540926       2.55398754        0       0.01912294       0.40601571       0.33727656       0.02712679      -0.42697980      -1.30482181       0.02712679      -0.42697980      -1.30482181     -13.99403985
H       -0.88134181       1.07641235       2.54837314        0       0.27123953       0.16148327      -0.34320992       0.94570660       1.36166405       6.63367223       0.94570660       1.36166405       6.63367223     -13.44685327
H       -1.02031273       1.67373673       1.05523724        0      -0.08413122      -0.11947149      -0.34179616      -0.82766488      -0.95262690      -0.88533744      -0.82766488      -0.95262690      -0.88533744     -13.86690359
H       -1.57065829       0.22975762      -2.53228762        0      -0.34192580       0.67694330      -0.06566476       1.06407975       0.06419880       1.90979552       1.06407975       0.06419880       1.90979552     -13.77301266
H       -0.37736938       1.43017727      -2.48990560        0       0.23489677       0.22555784       0.07554899       1.22754097       0.31828914      -0.69116798       1.22754097       0.31828914      -0.69116798     -13.92033153
H       -0.06617787      -0.69885911      -2.71732051        0       0.24107588       0.71672985       0.03883575       0.01073449       3.41128164       1.49393283       0.01073449       3.41128164       1.49393283     -13.53132034
12
Properties=species:S:1:pos:R:3:molID:I:1:momenta:R:3:force_mace:R:3:forces:R:3:energies:R:1 Nmols=1 Comp=DMC(1) energy_mace=-587.6438053524687 energy=-587.6438053524687 stress="1.004876642164443e-05 -4.462375798338744e-06 -1.018142897193295e-06 -4.462375798338744e-06 -4.672971623475321e-06 7.498353468086924e-07 -1.018142897193295e-06 7.498353468086924e-07 1.0332534611451846e-05" free_energy=-587.6438053524687 pbc="F F F"
C        0.48878141      -0.35877897       0.11986378        0       0.57924530      -3.49550298       0.11808884      -2.13796282      -0.61616804      -0.07400722      -2.13796282      -0.61616804      -0.07400722     -59.24052138
O        1.27809669      -1.22722422      -0.01168465        0       0.57449121       1.17737017       0.81562234       0.82760306      -0.06065063      -0.48567141       0.82760306      -0.06065063      -0.48567141    -109.81391409
O       -0.23841437      -0.32159783       1.26624014        0      -0.77342386      -0.45851436      -0.38193915       0.40364152       0.53937220       0.65978431       0.40364152       0.53937220       0.65978431    -110.30952853
O        0.01752270       0.50733878      -0.81008650        0      -0.59162802       0.94505862      -0.73673008       0.03533915       0.48057004       0.14179236       0.03533915       0.48057004       0.14179236    -109.84743771
C       -0.90571658       0.88549532       1.65572157        0       2.61723235       1.55065387      -0.58566352      -1.68105441      -0.94716638      -4.00484394      -1.68105441      -0.94716638      -4.00484394     -57.86428832
C       -0.64654400       0.43447487      -2.22328646        0      -1.19271122       0.72825692       0.86141428       4.32098770      -0.99536763       0.79650572       4.32098770      -0.99536763       0.79650572     -57.66600444
H       -1.45400911       0.91869525       2.57576710        0       0.02632017      -0.04741110       0.16784063      -0.57610089      -0.85619492      -0.22274203      -0.57610089      -0.85619492      -0.22274203     -13.86025962
H       -0.78739217       1.16521361       2.62354440        0      -0.03732787       0.13531418      -0.52055002       1.34003686       1.34151662       1.07698458       1.34003686       1.34151662       1.07698458     -13.87881716
H       -1.41031111       1.28462203       0.69564228        0      -0.37653675      -0.26355975      -0.12646634       0.90058414       0.20622753       2.14565007       0.90058414       0.20622753       2.14565007     -13.81406729
H       -1.72205433       0.51018743      -1.99978573        0      -0.21503795      -0.24790874       0.83363176       0.61020826      -0.80801350      -0.75858752       0.61020826      -0.80801350      -0.75858752     -14.17090741
H       -0.13883622       1.31657873      -2.51008595        0      -0.11323038       0.15681183      -0.37930517      -0.85983556       1.80339823      -0.59453847      -0.85983556       1.80339823      -0.59453847     -13.66245167
H        0.24373410      -0.19582007      -2.83915566        0      -0.49739297      -0.18056867      -0.06594358      -3.18344702      -0.08752353       1.31967353      -3.18344702      -0.08752353       1.31967353     -13.51560774
12
Properties=species:S:1:pos:R:3:molID:I:1:momenta:R:3:force_mace:R:3:forces:R:3:energies:R:1 Nmols=1 Comp=DMC(1) energy_mace=-588.0142478110611 energy=-588.0142478110611 stress="2.6932478764316534e-06 -7.809209621949565e-06 9.608836189494774e-06 -7.809209621949565e-06 1.6157962406327742e-05 -5.692255740306855e-06 9.608836189494774e-06 -5.692255740306855e-06 -3.4339390492180093e-06" free_energy=-588.0142478110611 pbc="F F F"
C        0.35622263      -0.51808840       0.12066940        0      -2.37071421      -0.82974116      -0.54011650       4.07007144       0.12258249      -2.55852501       4.07007144       0.12258249      -2.55852501     -59.08124315
O        1.37168377      -1.21837430       0.03644908        0       1.81316858      -0.01971284       0.11322117      -3.32520912       1.57236752      -0.65545410      -3.32520912       1.57236752      -0.65545410    -109.60078165
O       -0.25224613      -0.34176948       1.23394087        0      -0.33695484       0.18865305      -0.72310856      -1.11143323       0.64536767       1.06036937      -1.11143323       0.64536767       1.06036937    -110.62218882
O        0.01612889       0.55076023      -0.85059142        0       0.54172211       0.25994772      -0.17680522       1.56134802      -0.78094026       0.67265919       1.56134802      -0.78094026       0.67265919    -109.89804685
C       -0.78982550       0.93066559       1.54494686        0       0.97336932       0.13626672      -1.78372169      -1.73756266       0.15573519      -3.68522911      -1.73756266       0.15573519      -3.68522911     -57.75152391
C       -0.66285240       0.50249016      -2.07696803        0      -0.60708408       0.17765428       2.89621867      -2.12417192      -5.84999583       0.95835616      -2.12417192      -5.84999583       0.95835616     -58.05296794
H       -1.13188838       0.87675960       2.47796953        0       0.57216183       0.42550385       0.53539195      -0.62664477       0.99632752       2.00351759      -0.62664477       0.99632752       2.00351759     -13.80567703
H       -0.47061066       1.56430022       2.25880213        0       0.60105167      -0.16877294      -0.65114409       0.84843530      -0.21118661       1.46158017       0.84843530      -0.21118661       1.46158017     -13.94814893
H       -1.44535509       1.49016254       0.78669788        0       0.23113169       0.71127969      -0.16085724       1.15233090      -1.53508923       0.65888335       1.15233090      -1.53508923       0.65888335     -13.90770076
H       -1.66162944       0.23542333      -1.74649718        0      -0.51457800      -0.22457669       0.08081189      -1.18300305       0.58791604       0.18015690      -1.18300305       0.58791604       0.18015690     -13.61981554
H       -0.73096120       1.37540716      -2.60820249        0      -0.55197854      -0.30505321       0.17934792       0.93820906       1.56614820      -1.04193585       0.93820906       1.56614820      -1.04193585     -14.13512676
H       -0.63368866      -0.57677550      -2.68179814        0      -0.35129550      -0.35144848       0.23076171       1.53763002       2.73076730       0.94562134       1.53763002       2.73076730       0.94562134     -13.59102648
12
Properties=species:S:1:pos:R:3:molID:I:1:momenta:R:3:force_mace:R:3:forces:R:3:energies:R:1 Nmols=1 Comp=DMC(1) energy_mace=-587.939493750667 energy=-587.939493750667 stress="-1.046881450281194e-05 -5.820363675717267e-06 5.831439117401095e-06 -5.820363675717267e-06 6.462593272734235e-06 -7.132493714125377e-06 5.831439117401095e-06 -7.132493714125377e-06 -7.498173957358128e-06" free_energy=-587.939493750667 pbc="F F F"
C        0.37113195      -0.59628796       0.00299929        0       1.55503648       0.68768817      -1.36813958      -1.69536796       5.48441421       2.54415627      -1.69536796       5.48441421       2.54415627     -58.61994452
O        1.36729154      -1.17626733       0.04337788        0      -1.40764984       0.57265327      -0.10306147       1.83379557      -2.43723593      -1.21149428       1.83379557      -2.43723593      -1.21149428    -109.95733943
O       -0.31313011      -0.35540411       1.20303131        0      -1.22889275      -0.70722805      -0.61445749      -1.18029686      -0.14802514      -1.73293097      -1.18029686      -0.14802514      -1.73293097    -110.14145761
O        0.09770594       0.54345225      -0.83892641        0       2.32961926      -0.47075360       1.22212299       0.67189199      -1.78444531       0.86023852       0.67189199      -1.78444531       0.86023852    -110.10804625
C       -0.74427855       1.02285744       1.44163167        0       1.19863330       1.04425792      -0.64224778       1.97743070      -0.69677276      -2.77372244       1.97743070      -0.69677276      -2.77372244     -57.82832378
C       -0.85858107       0.40766012      -1.84096066        0      -3.23857445      -1.17847478       2.31549555       4.86255008      -0.75347751      -3.38829213       4.86255008      -0.75347751      -3.38829213     -58.12785249
H       -0.63777843       1.34052363       2.35547636        0      -0.03175589       0.44659587       0.01864482      -1.24714329       0.55949799       3.35176293      -1.24714329       0.55949799       3.35176293     -13.88481437
H        0.10126706       1.41614193       2.07511511        0       0.26206481      -0.09511709      -0.59089028      -0.38968264       0.56052981      -1.17745636      -0.38968264       0.56052981      -1.17745636     -13.71904341
H       -1.24527656       1.53805469       0.57476308        0      -0.09265457      -0.03226336      -0.62996386       0.36087143      -0.81012960       1.69815162       0.36087143      -0.81012960       1.69815162     -14.01745947
H       -1.80482979       0.41617667      -1.51383639        0      -0.10549083       0.27665137       0.33246937      -3.40345834      -1.19629935       1.29672345      -3.40345834      -1.19629935       1.29672345     -13.98241468
H       -0.78793189       1.27808869      -2.48315737        0       0.31083316      -0.44901346       0.23729504       0.38167743       0.51348284      -0.06627513       0.38167743       0.51348284      -0.06627513     -13.85368406
H       -0.33330258      -0.42422983      -2.47347650        0       0.44883132      -0.09499626      -0.17726731      -2.17226812       0.70846074       0.59913851      -2.17226812       0.70846074       0.59913851     -13.69911368
12
Properties=species:S:1:pos:R:3:molID:I:1:momenta:R:3:force_mace:R:3:forces:R:3:energies:R:1 Nmols=1 Comp=DMC(1) energy_mace=-588.3674192092647 energy=-588.3674192092647 stress="8.12579496780182e-06 1.1006602739074691e-05 5.834222398623021e-06 1.1006602739074691e-05 4.747748698320483e-06 6.710787170023351e-06 5.834222398623021e-06 6.710787170023351e-06 -2.650177152180279e-05" free_energy=-588.3674192092647 pbc="F F F"
C        0.40858203      -0.39537620       0.03763228        0       1.07066816       1.44593945       1.93386475       3.29581092      -5.96962025       3.85073747       3.29581092      -5.96962025       3.85073747     -59.33477041
O        1.33974010      -1.20113205      -0.00452480        0      -0.54497245      -0.61003611      -1.11140780      -1.79020550       1.23128929       0.00653908      -1.79020550       1.23128929       0.00653908    -109.49937819
O       -0.40716187      -0.37993362       1.14530488        0      -1.45831985       0.99182170      -0.88649321       0.65160083       2.91254177      -0.50202672       0.65160083       2.91254177      -0.50202672    -110.11866352
O        0.21260609       0.48078353      -0.81577427        0       0.55549546      -0.09704928      -1.61251968      -2.38844116       2.07686744      -4.36482150      -2.38844116       2.07686744      -4.36482150    -110.36651925
C       -0.59931828       1.09419584       1.37328614        0       2.08458765      -0.02987062      -0.63832196      -1.02536214      -1.86787331      -2.84871536      -1.02536214      -1.86787331      -2.84871536     -57.65537240
C       -0.99584894       0.28978190      -1.72291353        0      -0.49258154      -0.62643930       1.58244373       3.96526802       0.78284223      -1.99358894       3.96526802       0.78284223      -1.99358894     -57.67388585
H       -0.45794818       1.41153919       2.26743293        0       0.52782248       0.09484970       0.08070349       0.33748943       1.31311494       3.82072202       0.33748943       1.31311494       3.82072202     -13.91207338
H        0.21274562       1.73420780       1.76906160        0      -0.00836363       0.40886782       0.17183706      -1.00769319      -1.14685862      -0.62706156      -1.00769319      -1.14685862      -0.62706156     -13.91160323
H       -1.39001754       1.40039546       0.68498788        0      -0.82384729       0.03300881       0.05426441       0.60954707       0.22656909       0.75820737       0.60954707       0.22656909       0.75820737     -14.00000791
H       -1.91897706       0.35356878      -1.29400079        0       0.36362416      -0.21979793      -0.02363403      -1.83430175       0.41375447       1.52108301      -1.83430175       0.41375447       1.52108301     -14.09155608
H       -0.67345472       1.15213720      -2.33699102        0      -0.34541675      -0.33652794       0.28981672      -1.23060511      -0.37871559      -0.29314989      -1.23060511      -0.37871559      -0.29314989     -13.77797657
H       -0.93286941      -0.63910495      -2.32880646        0      -0.92869643      -1.05476629       0.15944652       0.41689256       0.40608855       0.67207503       0.41689256       0.40608855       0.67207503     -14.02561242
12
Properties=species:S:1:pos:R:3:molID:I:1:momenta:R:3:force_mace:R:3:forces:R:3:energies:R:1 Nmols=1 Comp=DMC(1) energy_mace=-587.8218715170705 energy=-587.8218715170705 stress="-1.6371771250850575e-05 1.0588340021581169e-05 -1.4667791699897663e-06 1.0588340021581169e-05 -2.171535167001646e-05 -1.5012903886734223e-05 -1.4667791699897663e-06 -1.5012903886734223e-05 -4.756818658105516e-06" free_energy=-587.8218715170705 pbc="F F F"
C        0.53851052      -0.40422733       0.22228255        0       1.24314608      -0.04658557       1.21212870      -4.14924996       1.84416724      -3.68366113      -4.14924996       1.84416724      -3.68366113     -58.58249461
O        1.28432229      -1.21794346      -0.07738280        0       0.04000348      -1.16356454      -0.76915881       3.18825287      -2.88864427       0.84192402       3.18825287      -2.88864427       0.84192402    -109.97729152
O       -0.45828593      -0.27353643       1.07071930        0      -0.22957810       2.00149204      -1.10870750       2.06372404      -0.04314214       0.21945393       2.06372404      -0.04314214       0.21945393    -110.66270210
O        0.18722767       0.46417861      -0.97284481        0      -1.30118492      -0.83418921      -2.83284779       2.21417733       0.33201455       0.59815096       2.21417733       0.33201455       0.59815096    -109.83260491
C       -0.51424618       1.09900857       1.37292446        0       0.24291154       0.11879330       0.83858946      -1.75383565       0.36242278       0.65890646      -1.75383565       0.36242278       0.65890646     -57.55059002
C       -1.00188618       0.21688631      -1.63191817        0      -0.83154254       0.47985753       2.24768919      -1.77560821       5.65290260       3.44446264      -1.77560821       5.65290260       3.44446264     -58.18058964
H       -0.17864966       1.29457878       2.28625442        0       0.24037523      -0.29205439      -0.35523365       1.47459981       0.88122547       2.61720518       1.47459981       0.88122547       2.61720518     -13.79545039
H        0.25162862       1.80352357       1.67248597        0       0.54629642       0.10574946      -0.11249767      -0.34164632      -0.96323285      -0.71853064      -0.34164632      -0.96323285      -0.71853064     -13.95728380
H       -1.50290763       1.40928014       1.23154919        0      -0.45567310       0.39573809       0.47071301      -1.00709570       0.84749773      -0.80043558      -1.00709570       0.84749773      -0.80043558     -13.86723509
H       -1.76197507       0.40802737      -0.74992689        0       0.77261796       0.24331736       0.21592977      -0.00163244      -0.04681714      -1.64511001      -0.00163244      -0.04681714      -1.64511001     -13.53830665
H       -1.19016525       1.05168652      -2.37614451        0      -0.49823629      -0.52679171      -0.07342237       0.54897900      -1.63063500       0.57077109       0.54897900      -1.63063500       0.57077109     -14.00032164
H       -1.12136627      -0.74942973      -1.77744878        0       0.23086424      -0.48176236       0.26681767      -0.46066479      -4.34775897      -2.10313691      -0.46066479      -4.34775897      -2.10313691     -13.87700115
12
Properties=species:S:1:pos:R:3:molID:I:1:momenta:R:3:force_mace:R:3:forces:R:3:energies:R:1 Nmols=1 Comp=DMC(1) energy_mace=-587.5770136428712 energy=-587.5770136428712 stress="-1.6707402922686007e-05 -1.2356393703966961e-05 -4.132774886320053e-06 -1.2356393703966961e-05 -3.1664032570703547e-06 3.005457935783479e-06 -4.132774886320053e-06 3.005457935783479e-06 7.167864232485997e-06" free_energy=-587.5770136428712 pbc="F F F"
C        0.54153859      -0.41969967       0.13240586        0      -0.37672175      -0.67419972      -3.60062737       1.41219784      -1.30273318      -4.04910048       1.41219784      -1.30273318      -4.04910048     -58.85160485
O        1.35328338      -1.31596884      -0.04784924        0       0.55569168      -1.07499700       1.23017740      -2.22075126       2.93981221       1.31743025      -2.22075126       2.93981221       1.31743025    -109.82103976
O       -0.39793452      -0.17050628       0.98008502        0       1.75270802       1.00371561      -1.12185062      -0.87170992      -1.05636980       1.77985652      -0.87170992      -1.05636980       1.77985652    -110.38677706
O        0.15632772       0.45546402      -1.09705702        0       0.91532324       0.51274527      -0.96750857       3.86232201      -0.60860100       1.26575490       3.86232201      -0.60860100       1.26575490    -109.95064410
C       -0.58210877       1.17555878       1.50042843        0      -0.00446079       1.24929754       2.89087012       6.22609403      -1.87583979       0.17904004       6.22609403      -1.87583979       0.17904004     -57.68548830
C       -1.09768134       0.18752357      -1.45353708        0      -1.87001574      -1.46888187       1.40092340      -3.16890911       1.44446316       1.86206653      -3.16890911       1.44446316       1.86206653     -58.20386272
H        0.22115593       1.35396492       2.19172922        0      -0.20406274      -0.01317214      -0.46885784      -0.53749118      -0.15951279       1.08331917      -0.53749118      -0.15951279       1.08331917     -13.83568385
H        0.39181063       1.61245692       1.43545737        0       0.55506132       0.21493817      -0.23338429      -0.03797159       1.18251785      -0.81207809      -0.03797159       1.18251785      -0.81207809     -13.75552980
H       -1.44536005       1.60651670       1.52174844        0      -0.26432354       0.03867160       0.18962998      -4.04703079       1.39682155      -0.10041413      -4.04703079       1.39682155      -0.10041413     -14.02216526
H       -1.62126217       0.50926916      -0.42869154        0      -0.59748210      -0.06561807       0.18793877      -0.86795239      -0.86687042      -3.51935865      -0.86795239      -0.86687042      -3.51935865     -13.36996917
H       -1.53713906       0.56615217      -2.38801283        0      -0.12016483      -0.16348248       0.11870309       0.59318641       1.41486793       0.63169801       0.59318641       1.41486793       0.63169801     -13.93292252
H       -1.23579438      -0.81484142      -1.67170224        0      -0.34155276       0.44098310       0.37398593      -0.34198404      -2.50855572       0.36178594      -0.34198404      -2.50855572       0.36178594     -13.76132625
12
Properties=species:S:1:pos:R:3:molID:I:1:momenta:R:3:force_mace:R:3:forces:R:3:energies:R:1 Nmols=1 Comp=DMC(1) energy_mace=-587.2890918554722 energy=-587.2890918554722 stress="1.6976500317102155e-05 3.8686818266365587e-08 -3.9994926105267025e-06 3.8686818266365587e-08 2.5370431015537e-05 2.132413208360787e-06 -3.9994926105267025e-06 2.132413208360787e-06 5.38238869207296e-06" free_energy=-587.2890918554722 pbc="F F F"
C        0.57939206      -0.45813492      -0.19022218        0       0.62893406       0.38880049      -3.39754927      -1.16849430       2.70397409       2.99938829      -1.16849430       2.70397409       2.99938829     -58.86065571
O        1.36032463      -1.31364830       0.03503622        0      -0.09027648       0.71444427       0.89103633       0.15038614       0.38750530      -1.53296035       0.15038614       0.38750530      -1.53296035    -109.94442507
O       -0.29378403      -0.13823502       0.95259277        0       1.80680166       0.66891207       0.31662639       0.75354471       1.31354849       0.47454158       0.75354471       1.31354849       0.47454158    -109.57482775
O        0.21523772       0.45236835      -1.13545355        0      -0.56854925      -1.34326920       0.06451764      -2.77145320      -3.36739762       1.61120004      -2.77145320      -3.36739762       1.61120004    -110.01948284
C       -0.52913404       1.24817793       1.63987861        0       0.33829837       0.21551813       0.94933144       1.51578103      -4.01602284      -1.34271551       1.51578103      -4.01602284      -1.34271551     -57.68834346
C       -1.32818043       0.11394816      -1.32149295        0      -3.07345034      -1.32331078       0.71503137      -0.59657651       0.35053072      -2.23077777      -0.59657651       0.35053072      -2.23077777     -57.48177105
H        0.30604581       1.53955707       2.26619681        0      -0.25703795       0.03088623      -0.34047296      -0.98414295      -0.26648131      -0.27184062      -0.98414295      -0.26648131      -0.27184062     -14.02559650
H        0.14080678       1.97415282       1.50306446        0       0.15062686       0.91027991       0.32702811       1.75105336       1.41389572      -0.58955862       1.75105336       1.41389572      -0.58955862     -14.03482220
H       -1.54003754       1.29411161       1.64645067        0       0.76472247      -0.82986840       0.23635354      -1.90939978       0.39739114       0.58661483      -1.90939978       0.39739114       0.58661483     -14.08635417
H       -2.33668877       0.29439569      -0.82906465        0      -0.36746888       0.09096791       0.03606450       2.14444307       0.66751939       0.95620511       2.14444307       0.66751939       0.95620511     -13.77119490
H       -1.45684566       0.76472516      -2.19975720        0       0.24625913      -0.05024689       0.12079214       0.12053209      -1.00235095      -0.07582959       0.12053209      -1.00235095      -0.07582959     -13.91230856
H       -1.45291195      -1.01534835      -1.40054638        0       0.42114034       0.52688626       0.08124077       0.99432634       1.41788788      -0.58426739       0.99432634       1.41788788      -0.58426739     -13.88930964
12
Properties=species:S:1:pos:R:3:molID:I:1:momenta:R:3:force_mace:R:3:forces:R:3:energies:R:1 Nmols=1 Comp=DMC(1) energy_mace=-587.2296896537515 energy=-587.2296896537515 stress="1.0568850276709744e-05 -3.1303134511898097e-07 -5.5840030197343965e-06 -3.1303134511898097e-07 -4.862419565253018e-06 1.4726963439480722e-05 -5.5840030197343965e-06 1.4726963439480722e-05 2.6066055568499616e-06" free_energy=-587.2296896537515 pbc="F F F"
C        0.63085392      -0.41882200      -0.23702424        0       0.64888353       0.07479316       2.62578372      -2.66750974       2.27664417       4.12978812      -2.66750974       2.27664417       4.12978812     -58.76073864
O        1.38886873      -1.25074812       0.00889551        0       0.34229147       1.56412951      -1.45887434       2.23416800      -1.71967857      -1.07052420       2.23416800      -1.71967857      -1.07052420    -109.98601528
O       -0.17519301      -0.04476846       0.97851630        0       2.39042521       2.48470084       0.55179040       0.85133124       0.84168233       0.13265748       0.85133124       0.84168233       0.13265748    -109.70645592
O        0.12105163       0.31253722      -1.14183659        0      -2.88528422      -1.76153550      -0.97730456      -1.70451816       0.65768094      -1.56550256      -1.70451816       0.65768094      -1.56550256    -110.08197960
C       -0.47727747       1.21637242       1.62524262        0      -0.20749666      -1.78558936      -0.09234274      -0.77150538      -3.99551499       1.30159154      -0.77150538      -3.99551499       1.30159154     -57.68187210
C       -1.52797288       0.08072895      -1.29693738        0      -0.50724667      -0.88158413      -0.69831830       4.52434168      -0.67355278      -1.74547250       4.52434168      -0.67355278      -1.74547250     -57.35964045
H        0.31187715       1.74310018       2.24509608        0      -0.17672339      -0.12706031      -0.34240869      -1.77093215      -0.91303117      -1.50922856      -1.77093215      -0.91303117      -1.50922856     -13.91754806
H       -0.19404638       2.13969821       1.56400546        0      -0.26874518       0.13134430      -0.33752418       2.02421719       2.68587263      -0.78021790       2.02421719       2.68587263      -0.78021790     -13.99759368
H       -1.45661324       0.96123293       1.98298155        0       0.89154864       0.24984817       0.11615651       0.23114394       0.56171365       0.39101993       0.23114394       0.56171365       0.39101993     -13.84088778
H       -2.04601771       0.49275933      -0.43127095        0       0.72764452       0.10659257       0.66971360       0.20784523      -0.38522550      -0.66470235       0.20784523      -0.38522550      -0.66470235     -14.27787594
H       -1.45769724       0.48708566      -2.31071466        0      -0.44756078      -0.33251902      -0.11795422      -1.15935861       0.75502054       0.51175053      -1.15935861       0.75502054       0.51175053     -13.90711652
H       -1.21498823      -0.95431032      -1.53741678        0      -0.50773646       0.27687977       0.06128281      -1.99922325      -0.09161124       0.86884043      -1.99922325      -0.09161124       0.86884043     -13.71196568
12
Properties=species:S:1:pos:R:3:molID:I:1:momenta:R:3:force_mace:R:3:forces:R:3:energies:R:1 Nmols=1 Comp=DMC(1) energy_mace=-587.4028062775071 energy=-587.4028062775071 stress="2.7307333347116123e-05 -3.1794397728153605e-06 1.1790676286150598e-05 -3.1794397728153605e-06 7.574457234353129e-06 -3.070373766795569e-06 1.1790676286150598e-05 -3.070373766795569e-06 -1.0830736112021364e-05" free_energy=-587.4028062775071 pbc="F F F"
C        0.57212754      -0.33604749       0.02612776        0      -0.82437706       0.80670871       1.99793155       4.10750058      -4.09354205      -6.98255717       4.10750058      -4.09354205      -6.98255717     -59.12050431
O        1.47339449      -1.22282516      -0.11071793        0       0.50730170       0.85908542      -1.80294235      -3.76977682       4.11389432       0.83547927      -3.76977682       4.11389432       0.83547927    -109.44795162
O       -0.00785868       0.02947906       1.02193678        0       3.03067796      -0.55319268       1.33244878      -1.87397782      -1.72465432       5.06415201      -1.87397782      -1.72465432       5.06415201    -110.38786437
O       -0.07139656       0.19180632      -1.20540968        0      -2.62678776      -1.99102632      -0.92541374       1.44019917      -1.27017035       0.02551333       1.44019917      -1.27017035       0.02551333    -109.99327347
C       -0.47972376       1.15384772       1.61541229        0      -0.92287817       0.94277765       0.29399723      -1.13922835       1.50003782       3.34153879      -1.13922835       1.50003782       3.34153879     -57.64494435
C       -1.43941802       0.04924615      -1.35826787        0       1.29353398      -0.97302939      -0.94672467      -3.28009958      -1.16499431       1.62892714      -3.28009958      -1.16499431       1.62892714     -58.05784930
H        0.28594017       1.92783369       1.92243528        0      -0.05984178       0.15239899      -0.22917919      -1.42495755      -1.38961884      -0.88182686      -1.42495755      -1.38961884      -0.88182686     -13.77798894
H       -0.28114449       1.99924905       1.16257820        0      -0.15880192      -0.28428024      -0.35587376       0.76383139       2.93953958      -1.02431021       0.76383139       2.93953958      -1.02431021     -13.78361750
H       -1.40407072       1.14706841       2.32710361        0       0.77417762       0.00959335      -0.27364287       1.96087255      -0.74997711      -1.66858091       1.96087255      -0.74997711      -1.66858091     -13.86934113
H       -1.85366086       0.53268164      -0.50161072        0      -0.41934738       0.20674727       0.05278069      -0.70274329       0.45460985       1.23759025      -0.70274329       0.45460985       1.23759025     -13.65548089
H       -2.01683528       0.62515567      -2.11118144        0      -0.21331772       0.08784388       0.47132022       1.40626665      -0.67793241      -0.67980205       1.40626665      -0.67793241      -0.67980205     -13.97539592
H       -2.03506567      -1.02372241      -1.21726061        0      -0.38033946       0.73637336       0.38529811       2.51211306       2.06280782      -0.89612358       2.51211306       2.06280782      -0.89612358     -13.68859448
12
Properties=species:S:1:pos:R:3:molID:I:1:momenta:R:3:force_mace:R:3:forces:R:3:energies:R:1 Nmols=1 Comp=DMC(1) energy_mace=-588.1676135004739 energy=-588.1676135004739 stress="-2.1326125679376156e-06 2.47342461139609e-05 -4.112563774992839e-06 2.47342461139609e-05 1.703203459984953e-05 -1.2046143027835606e-05 -4.112563774992839e-06 -1.2046143027835606e-05 2.3001400333930437e-05" free_energy=-588.1676135004739 pbc="F F F"
C        0.61258815      -0.36601532      -0.06354835        0      -1.35436078       0.96433717      -2.38251924      -7.98159173       5.04201122       1.33255969      -7.98159173       5.04201122       1.33255969     -58.86566305
O        1.43344074      -1.10548753      -0.18815989        0       1.22489400       0.51227354      -1.09594819       5.85482207      -4.53459728      -0.60500256       5.85482207      -4.53459728      -0.60500256    -109.90483747
O        0.12150817      -0.02723040       1.22704606        0       1.47614220      -1.32413658       3.63501885       0.61239945       1.02012451      -2.14934101       0.61239945       1.02012451      -2.14934101    -110.09588545
O       -0.12239702       0.06241620      -1.21854859        0       0.15175770      -1.84201388       0.89485081       1.37525906      -0.29723381       1.47706351       1.37525906      -0.29723381       1.47706351    -110.20890268
C       -0.50280481       1.26145066       1.58055401        0      -0.51618590       1.20391149      -1.10476221      -0.30379059      -1.11955848       1.05044367      -0.30379059      -1.11955848       1.05044367     -57.96767480
C       -1.50386398       0.06261150      -1.31529178        0      -3.10468250       1.12947426       1.45692242      -1.52693937      -1.52140309      -1.13226667      -1.52693937      -1.52140309      -1.13226667     -58.16042762
H        0.18520620       2.18147651       1.49705618        0       0.18088487       0.50620626      -0.28772356      -0.66787004      -1.78750151       0.93810159      -0.66787004      -1.78750151       0.93810159     -13.83327846
H       -0.41391852       2.09602139       0.92762486        0      -0.16350484      -0.28778724       0.03456666      -0.64289589      -0.46242446      -0.61783427      -0.64289589      -0.46242446      -0.61783427     -13.97704214
H       -1.35261961       0.81887909       2.31915335        0       0.47734140      -0.18769722      -0.16896450       1.93882107       1.79658804      -1.56740242       1.93882107       1.79658804      -1.56740242     -13.64105122
H       -1.97410874       0.61043642      -0.54136277        0       0.51232097       0.09716333      -0.28038921      -0.33996484       0.79272405       0.80912954      -0.33996484       0.79272405       0.80912954     -13.96778887
H       -1.67962876       0.62388814      -2.30691666        0       0.61872347      -0.26224825      -0.38693007      -0.03984176      -1.51186380       1.46565489      -0.03984176      -1.51186380       1.46565489     -13.86084066
H       -2.02856905      -1.06043574      -1.15156840        0       0.49666940      -0.50948289      -0.31412177       1.72159258       2.58313461      -1.00110595       1.72159258       2.58313461      -1.00110595     -13.68422107
12
Properties=species:S:1:pos:R:3:molID:I:1:momenta:R:3:force_mace:R:3:forces:R:3:energies:R:1 Nmols=1 Comp=DMC(1) energy_mace=-587.7619368048499 energy=-587.7619368048499 stress="1.7373828197245252e-05 -1.2085193562325612e-05 -1.513209778761299e-05 -1.2085193562325612e-05 3.084097095694406e-05 9.268826347797452e-06 -1.513209778761299e-05 9.268826347797452e-06 2.2538141340989497e-05" free_energy=-587.7619368048499 pbc="F F F"
C        0.49006109      -0.33429457      -0.10687317        0       1.03472805      -1.68097494       2.17366609       5.81689443      -4.55007360       4.18481383       5.81689443      -4.55007360       4.18481383     -59.20970626
O        1.50124723      -1.08289193      -0.26574550        0      -0.67241162       1.57770676      -1.44796730      -2.98431719       2.55083898       1.37186134      -2.98431719       2.55083898       1.37186134    -109.19307779
O        0.22820992      -0.05799430       1.33678469        0       1.75096468       0.85226915      -0.09080167      -1.09928090       3.31228086      -3.79743991      -1.09928090       3.31228086      -3.79743991    -109.82421848
O       -0.10652726      -0.01772826      -1.15515501        0      -0.03394777      -0.25410601       0.31727930      -3.93415116       2.64054944      -1.57412677      -3.93415116       2.64054944      -1.57412677    -110.33064710
C       -0.45412726       1.27305566       1.50358415        0       0.25952117      -1.40735672      -1.02218931      -1.25541141      -0.45960219       1.68829363      -1.25541141      -0.45960219       1.68829363     -57.83645827
C       -1.65798058       0.10272771      -1.27650433        0      -0.14672696       0.46667188       0.82104118       2.90841338      -1.98053840      -1.74857431       2.90841338      -1.98053840      -1.74857431     -57.72632648
H       -0.08270609       2.29621828       1.35497620        0      -0.01986481       0.71278649      -0.34119389      -0.49664013      -2.27702035      -0.79669406      -0.49664013      -2.27702035      -0.79669406     -13.94494979
H       -0.71882047       1.93997904       0.68233506        0      -0.43952441      -0.45883197       0.16013134       0.95630162      -0.77896723       1.64282355       0.95630162      -0.77896723       1.64282355     -13.93518344
H       -1.20812450       1.18110552       2.42657379        0      -0.04178519       0.68025417       0.12786340       1.77236345       0.19650707      -2.34537464       1.77236345       0.19650707      -2.34537464     -13.84707593
H       -2.06253308       0.82280012      -0.57264339        0      -0.32672065      -0.29030945      -0.60589470       0.06731412      -0.42883135      -0.05162064       0.06731412      -0.42883135      -0.05162064     -14.19892743
H       -1.62369090       0.34343586      -2.34771419        0      -0.77857187       0.35861731      -0.33539172      -0.63848093       0.73542670       0.42768613      -0.63848093       0.73542670       0.42768613     -13.86545147
H       -1.80685808      -1.01014882      -1.33282732        0      -0.58566062      -0.55672666       0.24345728      -1.11300529       1.03943008       0.99835185      -1.11300529       1.03943008       0.99835185     -13.84991436
12
Properties=species:S:1:pos:R:3:molID:I:1:momenta:R:3:force_mace:R:3:forces:R:3:energies:R:1 Nmols=1 Comp=DMC(1) energy_mace=-587.6861639931086 energy=-587.6861639931086 stress="1.1327471765865626e-05 -1.100035376265717e-06 -1.6401103610540127e-06 -1.100035376265717e-06 -6.580536527041731e-06 -1.0505379491833202e-06 -1.6401103610540127e-06 -1.0505379491833202e-06 1.3212639453287486e-05" free_energy=-587.6861639931086 pbc="F F F"
C        0.55175419      -0.49015435       0.13182612        0      -1.36004832      -0.67352306       2.12525694      -1.32420405       2.55708105      -4.35036155      -1.32420405       2.55708105      -4.35036155     -58.87383060
O        1.47640348      -1.05776762      -0.31189065        0       0.98985229      -0.93478674      -0.05543990       0.96933763      -1.26481732       1.32845558       0.96933763      -1.26481732       1.32845558    -109.79253198
O        0.29527886       0.05533709       1.26518248        0       0.80088220       1.40307339      -1.18330131      -0.34678440      -1.83530686       2.29224153      -0.34678440      -1.83530686       2.29224153    -110.54841123
O       -0.20418615      -0.00271065      -1.14521879        0      -2.81999357       0.11949376       0.88724913      -1.52700067      -0.44291606       0.90414728      -1.52700067      -0.44291606       0.90414728    -109.61457178
C       -0.42369135       1.24228570       1.47859972        0       0.29030417       1.15189295      -0.91676629      -0.13064804       2.95296306      -3.77028202      -0.13064804       2.95296306      -3.77028202     -57.88839426
C       -1.63509406       0.07359110      -1.33991258        0       0.00728313       0.49245487      -0.17242176       0.72288073      -0.27797718       5.56630789       0.72288073      -0.27797718       5.56630789     -58.05886892
H        0.06715984       1.93372634       0.78750947        0       0.62757247      -0.34084417      -0.86493960      -1.44344889       0.71198449       0.76113164      -1.44344889       0.71198449       0.76113164     -13.66202052
H       -0.80912264       1.77084634       0.44503421        0       0.29894840      -0.42548642      -0.36666884       1.77583133      -1.62489177       3.03677943       1.77583133      -1.62489177       3.03677943     -13.56068393
H       -0.83066863       1.50034424       2.48139298        0       0.40461759      -0.30438590       0.32055053       0.58893979      -0.87307556      -1.21082870       0.58893979      -0.87307556      -1.21082870     -14.05957255
H       -2.06258658       0.73888539      -0.54504879        0       0.80516063      -0.25949540       0.07692476       0.34987001       0.26323889      -0.05093087       0.34987001       0.26323889      -0.05093087     -13.62187642
H       -2.02817464       0.50529321      -2.15165301        0       0.07475591      -0.00408129      -0.09844476      -0.26896899       0.84514817      -3.67572508      -0.26896899       0.84514817      -3.67572508     -14.05623465
H       -2.21983925      -0.76940922      -0.97872749        0      -0.11933490      -0.22431200       0.24800109       0.63419554      -1.01143091      -0.83093513       0.63419554      -1.01143091      -0.83093513     -13.94916716
12
Properties=species:S:1:pos:R:3:molID:I:1:momenta:R:3:force_mace:R:3:forces:R:3:energies:R:1 Nmols=1 Comp=DMC(1) energy_mace=-588.3461113395642 energy=-588.3461113395642 stress="-1.0026701328180277e-05 -5.861431567502243e-06 5.817001537761766e-06 -5.861431567502243e-06 -1.0285244631569092e-05 4.212271881734602e-06 5.817001537761766e-06 4.212271881734602e-06 4.138943839837081e-06" free_energy=-588.3461113395642 pbc="F F F"
C        0.53777979      -0.50459091       0.07833836        0       0.51832521       0.62720837      -2.26924012      -1.38048294       2.78693787      -0.63410944      -1.38048294       2.78693787      -0.63410944     -58.95033383
O        1.49082865      -1.09726710      -0.25180843        0      -0.13533156      -0.05760316       1.83651957       0.31827412      -0.96396343       0.01717873       0.31827412      -0.96396343       0.01717873    -109.91715034
O        0.34730957       0.08636584       1.27204444        0       1.30196014      -0.14835674       0.84020491      -0.04029002      -0.83058166      -1.17948114      -0.04029002      -0.83058166      -1.17948114    -110.40695952
O       -0.33208503      -0.04976934      -1.07472019        0      -0.38286495      -2.17688054       0.96599475       3.24441311      -0.70260793       1.28014935       3.24441311      -0.70260793       1.28014935    -109.95987592
C       -0.35114093       1.37521528       1.32001254        0       1.17767270       0.93410800      -2.34603748      -0.08372884      -3.75426315      -0.29127737      -0.08372884      -3.75426315      -0.29127737     -57.95210633
C       -1.67262491       0.09218909      -1.25843004        0      -1.17141488      -0.26481051       1.47917030      -0.24530701      -0.81361493       3.09867150      -0.24530701      -0.81361493       3.09867150     -58.18330193
H        0.05945581       2.04667639       0.70500999        0      -0.02355007       0.72093625       0.06242181       0.29865155       1.15342680      -1.50201822       0.29865155       1.15342680      -1.50201822     -13.83991087
H       -0.66553036       1.51529055       0.27452296        0      -0.38447258       0.60923235      -0.11260484       0.57194616       2.30625060       2.67911407       0.57194616       2.30625060       2.67911407     -13.72847687
H       -0.66689767       1.30100857       2.34041912        0      -0.34120691       0.18967545       0.00455125      -0.69486584       1.20515082       0.02004362      -0.69486584       1.20515082       0.02004362     -13.91072769
H       -2.14793172       0.75746382      -0.48084130        0      -1.07112533      -0.13425386      -0.48836223       0.05779503      -0.67454175      -1.18590388       0.05779503      -0.67454175      -1.18590388     -13.93410784
H       -1.72671461       0.33313843      -2.23961156        0       0.46700841      -0.10549228       0.21107564      -0.61934574       1.64602183      -2.80541428      -0.61934574       1.64602183      -2.80541428     -13.78931196
H       -2.00668859      -0.90525497      -1.18638032        0       0.04499982      -0.19376333      -0.18369355      -1.42705957      -1.35821507       0.50304706      -1.42705957      -1.35821507       0.50304706     -13.77384824
12
Properties=species:S:1:pos:R:3:molID:I:1:momenta:R:3:force_mace:R:3:forces:R:3:energies:R:1 Nmols=1 Comp=DMC(1) energy_mace=-586.9195245286234 energy=-586.9195245286234 stress="1.636822224436738e-05 -1.2448397712133692e-05 3.119394525090812e-06 -1.2448397712133692e-05 8.540948097541181e-06 -1.2562236201540567e-06 3.119394525090812e-06 -1.2562236201540567e-06 -1.4446401772585164e-05" free_energy=-586.9195245286234 pbc="F F F"
C        0.53263959      -0.38002520      -0.08310192        0       0.29568157       0.80246037      -0.77540045       4.48850596      -3.62538149       4.33538407       4.48850596      -3.62538149       4.33538407     -59.25516406
O        1.52119382      -1.13126206      -0.16607430        0      -0.16842697      -0.33653189       0.91997663      -2.73982627       2.11266741      -0.58932632      -2.73982627       2.11266741      -0.58932632    -109.44802643
O        0.38554477       0.11291335       1.26553284        0       0.06024320       0.67936409      -1.43609666      -1.36081874       1.85262503      -2.78360081      -1.36081874       1.85262503      -2.78360081    -110.20945261
O       -0.28912751      -0.15458807      -0.99059699        0       1.00608177      -0.67178713       0.92917953      -2.63143342       1.05359259      -1.87690934      -2.63143342       1.05359259      -1.87690934    -110.28635558
C       -0.27442667       1.37990226       1.18647669        0       0.52718304       0.21422134      -0.45428376      -2.24712593       2.74066176       0.49242784      -2.24712593       2.74066176       0.49242784     -57.57556884
C       -1.80137283       0.00758690      -1.17223308        0      -1.66958854      -1.71022135      -0.23505025       0.07695385      -0.74843586       0.41301935       0.07695385      -0.74843586       0.41301935     -57.40350003
H        0.09496382       2.26883199       0.77789346        0       0.46485294       0.13264126       0.09143729       1.08949140       0.26286025      -0.18019683       1.08949140       0.26286025      -0.18019683     -13.99405830
H       -0.77904322       2.21069341       0.56404286        0      -0.01657604      -0.01332547      -0.15291062       1.53561239      -2.64112742      -0.95909131       1.53561239      -2.64112742      -0.95909131     -13.53577308
H       -0.88227309       1.68650668       2.00379100        0      -0.03311128       0.24673004       0.09429903       0.18674588      -1.40850399       2.04724965       0.18674588      -1.40850399       2.04724965     -13.65675926
H       -2.65211737       0.58971115      -0.81386075        0       0.07086473       0.23461613       0.25445056       1.08352646       0.60401238       1.76261579       1.08352646       0.60401238       1.76261579     -13.87158258
H       -1.68772457       0.46951718      -2.07642614        0      -0.27239664       0.10963793       0.58140798      -0.01523951       0.65299183      -2.59233151      -0.01523951       0.65299183      -2.59233151     -13.68879003
H       -2.26803124      -0.95379072      -1.24331713        0      -0.26480779       0.31219469       0.18299072       0.53360792      -0.85596248      -0.06924058       0.53360792      -0.85596248      -0.06924058     -13.99449375
12
Properties=species:S:1:pos:R:3:molID:I:1:momenta:R:3:force_mace:R:3:forces:R:3:energies:R:1 Nmols=1 Comp=DMC(1) energy_mace=-587.7880284779774 energy=-587.7880284779774 stress="-3.896249427563167e-06 1.029541227733006e-05 9.900353656123348e-06 1.029541227733006e-05 -2.357195814630824e-05 -2.068805847837675e-06 9.900353656123348e-06 -2.068805847837675e-06 2.4945530274007285e-06" free_energy=-587.7880284779774 pbc="F F F"
C        0.63112669      -0.42913232       0.03303956        0       0.19052566      -0.36939745       2.18433759      -5.30798953       2.56565800      -1.30795533      -5.30798953       2.56565800      -1.30795533     -59.12199098
O        1.48804838      -1.13936064      -0.14969076        0       0.03195354      -1.23740183      -0.78125587       4.17704260      -3.54930061      -1.24197716       4.17704260      -3.54930061      -1.24197716    -109.82943357
O        0.37566766       0.18419255       1.11887174        0       0.28437136       1.53118617      -2.50548983      -0.07165841       0.05187897       3.56740719      -0.07165841       0.05187897       3.56740719    -110.43570905
O       -0.33208411      -0.16644042      -0.98307737        0      -1.74743798      -0.19134807      -0.60169210      -0.17342889      -0.95609092      -1.60164354      -0.17342889      -0.95609092      -1.60164354    -109.42611149
C       -0.28908262       1.46546330       1.21296014        0      -0.12730935       1.22317769       0.56039440       2.09602963      -1.01095250      -2.57497751       2.09602963      -1.01095250      -2.57497751     -57.84894462
C       -1.89483320      -0.04306675      -1.18566712        0      -0.38007468       0.62617269       0.20276929       3.36072721       2.52648359       3.56440086       3.36072721       2.52648359       3.56440086     -57.76309381
H        0.33208899       2.16300442       0.77253957        0       0.15674261      -0.23456675      -0.26806427       0.02363751       0.48685756      -1.17944681       0.02363751       0.48685756      -1.17944681     -13.80383876
H       -0.18441224       1.72393296       0.09133987        0       0.54500459      -0.12130369       0.06138838      -1.01378900       1.78381910       3.25041649      -1.01378900       1.78381910       3.25041649     -13.44183312
H       -0.64017598       1.44976298       2.22478132        0       0.18790159      -0.31334356       0.13163940      -0.94433083       0.48102623      -0.05288204      -0.94433083       0.48102623      -0.05288204     -13.94448987
H       -1.99799679       0.58881395      -0.22709243        0       0.87723726      -0.62800850       0.42155319      -1.41624099      -1.13477861      -1.80927172      -1.41624099      -1.13477861      -1.80927172     -13.81360278
H       -1.91396078       0.56057896      -2.05662637        0      -0.24885115      -0.40784420       0.30861243      -0.22789851       0.09151017      -0.56299490      -0.22789851       0.09151017      -0.56299490     -14.12595348
H       -2.34196636      -0.97943839      -1.15770255        0       0.22993655       0.12267750       0.28580739      -0.50210078      -1.33611099      -0.05107554      -0.50210078      -1.33611099      -0.05107554     -14.23302693
12
Properties=species:S:1:pos:R:3:molID:I:1:momenta:R:3:force_mace:R:3:forces:R:3:energies:R:1 Nmols=1 Comp=DMC(1) energy_mace=-588.5939502400745 energy=-588.5939502400745 stress="1.7243200864977114e-05 -1.0709976776445352e-05 7.600211905494614e-06 -1.0709976776445352e-05 5.511407334980411e-06 -8.183567856787438e-06 7.600211905494614e-06 -8.183567856787438e-06 1.5087053994010648e-05" free_energy=-588.5939502400745 pbc="F F F"
C        0.59738238      -0.47403338       0.03965256        0      -0.07693917      -1.64333831      -2.26137952      -0.59102010      -0.35903986      -2.97888365      -0.59102010      -0.35903986      -2.97888365     -59.14703809
O        1.50889343      -1.21454022      -0.22914334        0      -0.73133023      -0.18195573      -1.50594427      -1.86233714       1.27301179       0.62348994      -1.86233714       1.27301179       0.62348994    -109.84680420
O        0.39699808       0.23690903       1.09397838        0      -0.20120726       0.78182238       1.92036785       0.31151880      -0.23384816       1.66390002       0.31151880      -0.23384816       1.66390002    -110.49184611
O       -0.43433852      -0.21480675      -1.01214765        0      -1.38237867      -0.98305241      -0.70953551       1.90792300       0.06051503      -0.29509759       1.90792300       0.06051503      -0.29509759    -109.70979747
C       -0.19662756       1.51416371       1.21387266        0       2.29838090       0.70227512      -1.18224694       0.76975051       1.42039763      -2.71143471       0.76975051       1.42039763      -2.71143471     -57.88761262
C       -1.84315391       0.01872426      -1.05466734        0       1.23497014       0.23502372       2.23081713       0.92984671      -0.71439639       3.01660863       0.92984671      -0.71439639       3.01660863     -58.15593147
H        0.45505351       2.28217393       0.80502956        0      -0.48124549      -0.01723739       0.54756148      -1.70332804      -0.27342150       0.14783546      -1.70332804      -0.27342150       0.14783546     -13.85947381
H       -0.39513112       2.19411295       0.32829230        0      -0.31886359       0.33800767       0.39674615       1.38885744      -1.61443176       1.91537979       1.38885744      -1.61443176       1.91537979     -13.77874883
H       -0.76510210       1.48034193       2.09344130        0      -0.12118116       0.29768294      -0.34172808      -0.25781816       0.53559934       0.47303881      -0.25781816       0.53559934       0.47303881     -13.97444042
H       -2.10796891       0.34252400       0.04534674        0      -0.60005579       0.47721108       0.19585307      -0.22902644       0.31308991      -2.33275883      -0.22902644       0.31308991      -2.33275883     -13.81458332
H       -2.07399922       0.53092973      -1.99153802        0       0.13105267      -0.20338940       0.77835520       0.19239987       0.40767411       0.84661536       0.19239987       0.40767411       0.84661536     -14.08968352
H       -2.21622551      -0.97859818      -1.08786808        0       0.24879764       0.19695032      -0.06886655      -0.85676645      -0.81515013      -0.36869322      -0.85676645      -0.81515013      -0.36869322     -13.83799039
12
Properties=species:S:1:pos:R:3:molID:I:1:momenta:R:3:force_mace:R:3:forces:R:3:energies:R:1 Nmols=1 Comp=DMC(1) energy_mace=-587.9642085755426 energy=-587.9642085755426 stress="2.707278552836628e-07 -9.230862522446211e-06 -1.0713639654677976e-07 -9.230862522446211e-06 1.9281565610619448e-05 5.231464584803827e-06 -1.0713639654677976e-07 5.231464584803827e-06 1.3880131000729501e-05" free_energy=-587.9642085755426 pbc="F F F"
C        0.51058416      -0.49121159      -0.13310817        0      -1.68253242       1.16100419      -1.37897870       1.44130805      -0.09342439       2.67500434       1.44130805      -0.09342439       2.67500434     -59.08281730
O        1.46936152      -1.21980941      -0.27216914        0      -1.47114957      -0.04970489       0.11217129      -2.18329702       1.81418534       0.43580770      -2.18329702       1.81418534       0.43580770    -109.80082219
O        0.35544847       0.25571859       1.19954812        0      -0.37893045       0.03681303       0.45058720       0.50925022      -0.32313641      -3.93489917       0.50925022      -0.32313641      -3.93489917    -110.02190053
O       -0.42889331      -0.29301149      -1.03986148        0       1.58491127      -0.88286502      -0.22984097       2.30264848      -0.00246991       0.91466282       2.30264848      -0.00246991       0.91466282    -110.54621984
C       -0.08277756       1.58329060       1.12282230        0       0.92969746       1.73705986      -0.53624952      -2.13998624       1.28677434       2.12049200      -2.13998624       1.28677434       2.12049200     -57.74966138
C       -1.76120942      -0.04939472      -0.85490285        0       0.02883927      -1.44965764       0.80626733      -1.26696570       2.51036257      -2.90232171      -1.26696570       2.51036257      -2.90232171     -57.89962510
H        0.33249360       2.57075390       1.06365804        0      -0.15643295      -0.58987459      -0.05986357       0.78125642      -1.17094949      -1.52777971       0.78125642      -1.17094949      -1.52777971     -13.87440946
H       -0.31266696       2.28819021       0.34752930        0       0.51340247      -0.15297039      -0.24168752       0.86903619      -0.81489059       0.81789113       0.86903619      -0.81489059       0.81789113     -13.95600678
H       -0.79959147       1.78887112       1.97422303        0       0.19278377      -0.03853918      -0.22836359       0.14781765      -0.91652025      -0.79313539       0.14781765      -0.91652025      -0.79313539     -13.72656143
H       -2.29950580       0.63634623      -0.23922823        0       0.18696007       0.00652375       0.33252515       0.74131518      -0.25499907       1.90317143       0.74131518      -0.25499907       1.90317143     -13.91649871
H       -1.91475480       0.66873564      -1.73918385        0       0.44751187      -0.19085045       0.43762811      -0.36954284      -1.20066630       0.15691621      -0.36954284      -1.20066630       0.15691621     -13.42088015
H       -2.27991555      -0.94980591      -1.02025899        0      -0.19506079       0.41306132       0.53580479      -0.83284040      -0.83426583       0.13419035      -0.83284040      -0.83426583       0.13419035     -13.96880570
12
Properties=species:S:1:pos:R:3:molID:I:1:momenta:R:3:force_mace:R:3:forces:R:3:energies:R:1 Nmols=1 Comp=DMC(1) energy_mace=-588.287063259838 energy=-588.287063259838 stress="-4.102230412969349e-06 1.4952835778312708e-05 -1.11995891387044e-05 1.4952835778312708e-05 -6.518714184502613e-06 6.224486008478951e-08 -1.11995891387044e-05 6.224486008478951e-08 1.349075637947236e-05" free_energy=-588.287063259838 pbc="F F F"
C        0.51397464      -0.41801047      -0.06303107        0       0.94250446       0.65550710       2.89054988      -2.03976073       1.60364974       2.02443661      -2.03976073       1.60364974       2.02443661     -59.26273674
O        1.35373201      -1.18072447      -0.25422239        0      -0.81511453       0.29301993       0.20893106       3.74493011      -2.22341246       0.35847153       3.74493011      -2.22341246       0.35847153    -109.61906585
O        0.34087054       0.25907672       1.14383225        0      -0.77067991       0.13572275      -1.61078441       0.23844551      -0.89709586      -0.49580526       0.23844551      -0.89709586      -0.49580526    -110.19248167
O       -0.35752023      -0.32227990      -1.03904647        0       0.19005883      -0.00697136      -0.12599581      -2.14491399       0.72803134      -1.56433411      -2.14491399       0.72803134      -1.56433411    -110.31253648
C       -0.06915426       1.64955944       1.11392949        0       0.58013111       0.73462054      -0.69200753       0.87925116      -0.46901591      -1.37021182       0.87925116      -0.46901591      -1.37021182     -57.95900908
C       -1.77373342      -0.08809846      -0.83832537        0      -0.57801235      -0.35717995      -0.40026889       0.18847922      -0.48123490      -0.44107139       0.18847922      -0.48123490      -0.44107139     -58.07636657
H        0.80511898       2.24364076       0.55598509        0      -0.07039737      -0.86280709      -0.17799195      -1.36163453      -0.54638605       2.28010413      -1.36163453      -0.54638605       2.28010413     -13.61213967
H        0.16205907       1.96483053       0.13756953        0       0.31015433      -0.19554611      -0.17318618      -1.03811739       0.58572498      -0.76077836      -1.03811739       0.58572498      -0.76077836     -13.74433675
H       -0.99690144       1.65139219       1.81256778        0      -0.07601104       0.10194917      -0.16102300       1.77588811       0.91760023      -0.82082393       1.77588811       0.91760023      -0.82082393     -13.80072014
H       -1.77693514       0.28807702       0.19296971        0       0.42903430      -0.46171861       0.17010344      -1.31412258       0.54321787      -0.90546939      -1.31412258       0.54321787      -0.90546939     -13.84273946
H       -2.07614822       0.40281059      -1.82634991        0      -0.59895870      -0.15893219       0.09057259       0.23525359      -0.04978162       1.98295318       0.23525359      -0.04978162       1.98295318     -13.92678969
H       -2.39445057      -1.01700822      -0.75435419        0       0.45729087       0.12233582      -0.01889920       0.83630151       0.28870263      -0.28747120       0.83630151       0.28870263      -0.28747120     -13.93814117
12
Properties=species:S:1:pos:R:3:molID:I:1:momenta:R:3:force_mace:R:3:forces:R:3:energies:R:1 Nmols=1 Comp=DMC(1) energy_mace=-588.4881401690651 energy=-588.4881401690651 stress="1.1677496480001102e-05 -6.902320223266983e-06 1.8297599180686318e-06 -6.902320223266983e-06 1.0031944234375231e-05 5.354811454660212e-06 1.8297599180686318e-06 5.354811454660212e-06 -1.0742016326167956e-05" free_energy=-588.4881401690651 pbc="F F F"
C        0.51763162      -0.38921372       0.08193281        0      -0.31073882      -1.43593122      -0.94709306       1.08984336      -3.85434720      -6.06472935       1.08984336      -3.85434720      -6.06472935     -59.18033406
O        1.40066513      -1.15308814      -0.23313805        0       1.65939394       1.49344342       1.17786537      -0.05455129       0.91136180       1.66591950      -0.05455129       0.91136180       1.66591950    -109.55642139
O        0.26425545       0.22496283       1.12613395        0      -1.67490669      -0.70365418       1.88120719      -1.46133929       2.18369499       3.81202919      -1.46133929       2.18369499       3.81202919    -110.59580350
O       -0.37572534      -0.29998784      -1.06488815        0      -0.10418732       1.09611908       0.06463057      -0.02354236       1.96961367       0.88416529      -0.02354236       1.96961367       0.88416529    -110.06776757
C       -0.03309847       1.65217998       0.97804185        0       0.78292942      -0.95774135      -2.37015820       0.27079405      -0.60774090       2.51469897       0.27079405      -0.60774090       2.51469897     -57.75364423
C       -1.74839428      -0.14986732      -0.82371135        0       0.28050976      -1.55353042       0.50438971      -1.81867050      -1.31234288       1.11831623      -1.81867050      -1.31234288       1.11831623     -58.16565215
H        0.93758578       2.06882145       0.66792157        0      -0.27622597       0.59808982      -0.02151816      -2.36273055       0.09636683      -0.06593210      -2.36273055       0.09636683      -0.06593210     -13.73450622
H        0.11359126       1.90848305       0.05184850        0       0.20063039       0.07289332      -0.05182513       1.40043035       1.25478573      -2.67844916       1.40043035       1.25478573      -2.67844916     -13.67681967
H       -0.85035784       2.10184076       1.59653749        0       0.09129281       0.67313207      -0.03066349       1.39900783      -0.88519691      -0.43715486       1.39900783      -0.88519691      -0.43715486     -14.06807536
H       -2.00859247       0.17707230       0.22609618        0      -0.71400558       0.21701082      -0.11154017       0.49672418      -0.77726445      -0.58828620       0.49672418      -0.77726445      -0.58828620     -13.89306215
H       -2.36913129       0.60230776      -1.40300314        0       0.00161529       0.36201006       0.20639104       1.39882361      -1.04036139      -0.31663682       1.39882361      -1.04036139      -0.31663682     -14.00399088
H       -2.10186795      -1.25194167      -0.95001366        0       0.06369276       0.13815858      -0.30168568      -0.33478939       2.06143069       0.15605930      -0.33478939       2.06143069       0.15605930     -13.79206297
12
Properties=species:S:1:pos:R:3:molID:I:1:momenta:R:3:force_mace:R:3:forces:R:3:energies:R:1 Nmols=1 Comp=DMC(1) energy_mace=-587.9855375124711 energy=-587.9855375124711 stress="-5.702764441176895e-07 6.955023394255659e-06 -5.473625184693993e-07 6.955023394255659e-06 1.2406189904311195e-05 3.998965554537137e-06 -5.473625184693993e-07 3.998965554537137e-06 7.5384337622109976e-06" free_energy=-587.9855375124711 pbc="F F F"
C        0.48747734      -0.49691365      -0.07336693        0      -0.62841239      -0.16980692      -1.27087838       0.54682474       0.83725842       2.65915619       0.54682474       0.83725842       2.65915619     -58.99228472
O        1.50716429      -1.10104400      -0.13766543        0       1.79491276       0.60401652       1.11435912      -0.98327618       0.21340893      -0.10870739      -0.98327618       0.21340893      -0.10870739    -109.94243748
O        0.14462664       0.23213907       1.23074674        0      -2.19707638       0.44943797       0.07306830       0.95612742       0.23186993      -4.22625461       0.95612742       0.23186993      -4.22625461    -109.88190790
O       -0.38098557      -0.20354876      -1.04237713        0       0.42691594       1.01480799       0.58613975       1.29098649      -1.85532175       1.14192118       1.29098649      -1.85532175       1.14192118    -110.58637197
C        0.01825400       1.61711602       0.82485082        0       0.34096390       0.40481877      -1.41668387      -1.35080509       0.34091106       4.47319920      -1.35080509       0.34091106       4.47319920     -57.61469696
C       -1.74447339      -0.24302843      -0.75701801        0       0.01200455      -0.80069362       0.60859833      -2.62279276       0.38158121      -1.18176663      -2.62279276       0.38158121      -1.18176663     -57.93424311
H        0.64171534       2.47106604       0.48658825        0       0.25521034      -0.28044270       0.01424395       1.35553601      -1.50325793       0.38421801       1.35553601      -1.50325793       0.38421801     -13.78367753
H        0.30489648       1.93430172      -0.04146298        0      -0.05110471      -0.24309906      -0.03645688       0.18130931       0.77278269      -3.76976129       0.18130931       0.77278269      -3.76976129     -13.89956624
H       -0.67782284       2.12458676       1.45914069        0      -0.45019233      -0.56686653       0.17789477      -0.99198834      -0.70773494       0.22700884      -0.99198834      -0.70773494       0.22700884     -13.91054903
H       -2.17343236      -0.12486441       0.26649317        0       0.32899398      -0.67061578       0.51377508       1.32872962       0.00055799      -0.45293154       1.32872962       0.00055799      -0.45293154     -14.05571803
H       -1.89591735       0.62998645      -1.37228176        0       0.28726298       0.16208876      -0.12807694      -1.55908512       0.42344810       0.16466808      -1.55908512       0.42344810       0.16466808     -13.50696324
H       -2.41096793      -1.07909216      -1.25115780        0      -0.11947862       0.09635459      -0.23598322       1.84843389       0.86449629       0.68924996       1.84843389       0.86449629       0.68924996     -13.87712131
12
Properties=species:S:1:pos:R:3:molID:I:1:momenta:R:3:force_mace:R:3:forces:R:3:energies:R:1 Nmols=1 Comp=DMC(1) energy_mace=-588.4242452769647 energy=-588.4242452769647 stress="-4.6108653518251375e-06 -3.7053143996484496e-07 2.20208749807936e-06 -3.7053143996484496e-07 -4.849150878685216e-06 -2.3392288845420724e-06 2.20208749807936e-06 -2.3392288845420724e-06 -1.1675237202335965e-05" free_energy=-588.4242452769647 pbc="F F F"
C        0.52879299      -0.49821176      -0.07125895        0       1.04868129       0.27032745       1.55797655      -2.17412350       2.38490696       3.04967778      -2.17412350       2.38490696       3.04967778     -58.99224659
O        1.55355289      -1.02219434      -0.08005386        0       0.11692237       1.66256978       0.51504614       2.09166378      -1.60131224      -0.42736305       2.09166378      -1.60131224      -0.42736305    -110.02204790
O        0.05343778       0.23624255       1.12765643        0      -0.63678313      -0.38707308      -2.61555053       0.95366811      -1.14511213      -1.68047317       0.95366811      -1.14511213      -1.68047317    -109.87243835
O       -0.32906331      -0.21532447      -0.99708818        0       0.65380791      -1.09809010      -0.46987656      -0.35855901      -0.33502668      -2.69031423      -0.35855901      -0.33502668      -2.69031423    -110.34841768
C       -0.04974733       1.64184790       0.80759695        0      -0.78393509      -0.88854972       0.37504960       1.16782320      -1.93745469       1.23005801       1.16782320      -1.93745469       1.23005801     -57.94129130
C       -1.77271263      -0.25873757      -0.73593771        0       0.30019147       0.17615730      -0.01902055       1.19745707      -0.50760862      -2.15293020       1.19745707      -0.50760862      -2.15293020     -58.06313561
H        1.03056980       1.85674000       0.57111719        0       0.13113983      -0.27601099       0.10896659      -2.29236061       1.75184696      -0.02399574      -2.29236061       1.75184696      -0.02399574     -13.62292041
H        0.31582501       2.03911313      -0.04688549        0       0.21477367       0.43164779       0.35968394       1.30645639      -0.18472868      -0.67815065       1.30645639      -0.18472868      -0.67815065     -13.89524260
H       -0.95875023       1.83254840       1.31396276        0      -0.37140883       0.47162408      -0.14393452      -0.19005980       1.54759766       0.61246889      -0.19005980       1.54759766       0.61246889     -13.86205999
H       -1.71030969      -0.54572308       0.25920466        0      -0.19332808      -0.25175859      -0.09850277      -1.72021334      -0.01457176       1.61788959      -1.72021334      -0.01457176       1.61788959     -13.79834793
H       -2.20200558       0.69325931      -1.12265169        0      -0.87889827       0.09471964       0.61587072       0.14371893      -0.86740275       0.78162949       0.14371893      -0.86740275       0.78162949     -14.08762599
H       -2.11209418      -1.15060893      -1.32933948        0       0.39883687      -0.20556357      -0.18570863      -0.12547121       0.90886598       0.36150327      -0.12547121       0.90886598       0.36150327     -13.91847091
12
Properties=species:S:1:pos:R:3:molID:I:1:momenta:R:3:force_mace:R:3:forces:R:3:energies:R:1 Nmols=1 Comp=DMC(1) energy_mace=-587.988072288847 energy=-587.988072288847 stress="1.969019541846907e-06 3.633695161104324e-06 1.2494795716080875e-06 3.633695161104324e-06 -4.046245597353866e-06 -7.869906138220102e-06 1.2494795716080875e-06 -7.869906138220102e-06 -1.2234516035296408e-05" free_energy=-587.988072288847 pbc="F F F"
C        0.53312339      -0.42379190       0.06555505        0       0.43017420       0.57142972      -0.11886975       3.83140894      -2.66112403      -5.43684959       3.83140894      -2.66112403      -5.43684959     -59.19133139
O        1.61635179      -0.98652331      -0.03907850        0       0.86000380       0.42679531       0.75551655      -2.70678499       1.14267259       0.63700466      -2.70678499       1.14267259       0.63700466    -109.71591110
O       -0.01962428       0.20869061       0.97035037        0      -1.89539773      -0.49158390      -0.79819614      -1.48113751       2.70628195       5.59304490      -1.48113751       2.70628195       5.59304490    -110.39738496
O       -0.30612918      -0.24412919      -1.05064381        0      -0.19074824      -0.22173457      -0.86345118      -0.48338797       0.01139800       0.88997334      -0.48338797       0.01139800       0.88997334    -110.01834529
C       -0.09926337       1.62000180       0.85815300        0       0.45102036       1.18723436       0.15727171       3.05560478       1.64882448      -0.70271282       3.05560478       1.64882448      -0.70271282     -57.69164641
C       -1.71550871      -0.33005365      -0.76129521        0       0.71561125      -1.74972584      -0.09940959       0.80820710      -3.01391470      -0.02558207       0.80820710      -3.01391470      -0.02558207     -58.00842186
H        0.79539383       2.23910525       1.03437293        0      -0.17970607       0.58352411       0.88198768       0.18585802      -1.47199833      -0.81217662       0.18585802      -1.47199833      -0.81217662     -13.77428656
H        0.50142758       2.11549855       0.12069850        0      -0.20008790      -0.37703795       0.27297695      -0.00511179      -0.22148195       0.33830169      -0.00511179      -0.22148195       0.33830169     -13.85599594
H       -0.82040308       2.26294591       1.19456395        0      -0.04477062       0.04852609       0.14017955      -3.01761082      -0.32944709       0.82492923      -3.01761082      -0.32944709       0.82492923     -13.89084412
H       -2.07359306      -0.58609912       0.25069212        0      -0.00604102       0.05771770      -0.18830698       1.04975040      -0.33264006      -0.75875312       1.04975040      -0.33264006      -0.75875312     -13.75215074
H       -2.42340139       0.39004208      -0.70261137        0       0.30637507       0.00635514       0.12557562      -0.67254551       2.79943927      -0.52286969      -0.67254551       2.79943927      -0.52286969     -13.80736591
H       -2.01903506      -1.05590162      -1.49201246        0      -0.24643311      -0.04150017      -0.26527442      -0.56425065      -0.27801014      -0.02430992      -0.56425065      -0.27801014      -0.02430992     -13.88438800
12
Properties=species:S:1:pos:R:3:molID:I:1:momenta:R:3:force_mace:R:3:forces:R:3:energies:R:1 Nmols=1 Comp=DMC(1) energy_mace=-588.6014661111999 energy=-588.6014661111999 stress="1.5670736287990155e-06 8.16882287896491e-07 -8.479981286742373e-07 8.16882287896491e-07 1.0291501938962713e-05 -3.095452286978352e-06 -8.479981286742373e-07 -3.095452286978352e-06 1.0370441445645742e-05" free_energy=-588.6014661111999 pbc="F F F"
C        0.59329146      -0.43910083      -0.06370887        0       0.01257965      -0.01440589      -1.59584663      -3.45392863       2.06204547       1.16300204      -3.45392863       2.06204547       1.16300204     -58.99613492
O        1.63582064      -0.95410584       0.00074338        0       0.13524380       0.11372030       0.14156546       0.63555904      -0.25718382      -0.03064258       0.63555904      -0.25718382      -0.03064258    -110.05413254
O       -0.13031138       0.27705372       1.03261575        0      -1.17703480       2.09818070       1.51727383       2.94091447      -0.23196730      -1.39525446       2.94091447      -0.23196730      -1.39525446    -109.85148545
O       -0.29128173      -0.30050663      -1.08027625        0       1.25737967      -2.05448256      -0.47947485       1.73956436      -1.79801341      -0.63466706       1.73956436      -1.79801341      -0.63466706    -110.28386548
C       -0.10362234       1.72391694       0.93279228        0      -1.31144897       1.44035379       1.07928443      -1.94795492      -1.76310301       0.49534438      -1.94795492      -1.76310301       0.49534438     -57.89437418
C       -1.68053844      -0.48554726      -0.81500382        0      -0.08913305      -0.62544241      -0.42432132       0.22700089       3.33110526       3.38448449       0.22700089       3.33110526       3.38448449     -58.11180511
H        0.80523819       2.20290706       1.16319294        0       0.63297891       0.06330908      -0.39527476      -0.10273502       0.15606709       0.48862923      -0.10273502       0.15606709       0.48862923     -14.00084423
H        0.51835685       2.28590562       0.33280072        0      -0.07943253       0.14931583       0.81189892       0.53821013      -0.10194496      -0.83590271       0.53821013      -0.10194496      -0.83590271     -14.00816849
H       -1.15564713       1.90897857       1.12325931        0      -0.07055128      -0.42025426      -0.17650941       0.67692948       1.02202952       0.26035712       0.67692948       1.02202952       0.26035712     -13.88578378
H       -1.77947604      -0.82633416       0.32319058        0       0.28163258      -0.58929592      -0.15362042      -0.65360061      -0.10035525      -2.71368454      -0.65360061      -0.10035525      -2.71368454     -13.76362839
H       -1.92000252       0.64802275      -0.77939181        0       0.62704508      -0.20608496      -0.27253239      -0.86579466      -1.53617748       0.18328062      -0.86579466      -1.53617748       0.18328062     -13.58671698
H       -2.30435451      -0.92156933      -1.56064827        0      -0.21925906       0.04508631      -0.05244286       0.26583546      -0.78250210      -0.36494654       0.26583546      -0.78250210      -0.36494654     -14.16452656
12
Properties=species:S:1:pos:R:3:molID:I:1:momenta:R:3:force_mace:R:3:forces:R:3:energies:R:1 Nmols=1 Comp=DMC(1) energy_mace=-587.9854468679564 energy=-587.9854468679564 stress="1.2329152073596191e-05 -1.6186382230837233e-05 -1.6346839688579352e-05 -1.6186382230837233e-05 2.3319399437597383e-05 -1.0862483679699254e-06 -1.6346839688579352e-05 -1.0862483679699254e-06 6.040939311135145e-06" free_energy=-587.9854468679564 pbc="F F F"
C        0.53701737      -0.40654957      -0.11389878        0       0.27135347       0.03331989       1.02595133       2.10878398       0.56752231       3.31415546       2.10878398       0.56752231       3.31415546     -59.07095780
O        1.61705807      -0.93086040      -0.00720541        0      -1.28450172       0.88503148      -0.06553720      -1.80268803       1.34925397       0.39572416      -1.80268803       1.34925397       0.39572416    -109.77471158
O       -0.10855564       0.38267044       1.08855834        0       1.56638475       1.31816727       0.09230319       1.30858207      -1.93094886      -2.74333134       1.30858207      -1.93094886      -2.74333134    -109.75300480
O       -0.20739995      -0.45415859      -1.14757000        0       0.51595444      -2.01569600      -1.66030727      -2.31915989       0.19633110      -0.59039085      -2.31915989       0.19633110      -0.59039085    -110.57114935
C       -0.17742704       1.80138906       1.03525845        0      -0.99175107       0.28255617       0.66490017      -5.36927713      -2.24540118      -0.81930971      -5.36927713      -2.24540118      -0.81930971     -57.98950202
C       -1.63375613      -0.49919284      -0.82360399        0       0.58180235      -0.31890703      -1.27615888      -0.35207636      -1.72894355       0.29607569      -0.35207636      -1.72894355       0.29607569     -57.93296998
H        0.70810323       2.09475624       1.33677168        0      -0.22165790       0.23451790       0.68103919       2.22387582       2.51441451       0.40314651       2.22387582       2.51441451       0.40314651     -13.73548568
H        0.47812301       2.31933998       0.41070980        0      -0.22831926      -0.35577584      -0.07734128       0.46225337      -0.45638583       0.59131294       0.46225337      -0.45638583       0.59131294     -13.94710166
H       -1.34104383       2.03388853       1.15118910        0       0.17111937       0.41946201       0.29303917       2.96614154       0.12396847       0.06004724       2.96614154       0.12396847       0.06004724     -13.78545127
H       -1.75425824      -1.41728904      -0.02220470        0      -0.02363490      -0.14892897       0.14622902       0.22544176       2.80105124      -0.48828830       0.22544176       2.80105124      -0.48828830     -13.56778337
H       -2.04111535       0.57805073      -0.78059507        0      -0.70572679      -0.09716037       0.49532549       0.60684156      -1.87591382       0.58296127       0.60684156      -1.87591382       0.58296127     -13.98874397
H       -2.12237347      -1.06954758      -1.60362042        0       0.34897725      -0.23658651      -0.31944292      -0.05871868       0.68505166      -1.00210305      -0.05871868       0.68505166      -1.00210305     -13.86858538
12
Properties=species:S:1:pos:R:3:molID:I:1:momenta:R:3:force_mace:R:3:forces:R:3:energies:R:1 Nmols=1 Comp=DMC(1) energy_mace=-587.7062841497119 energy=-587.7062841497119 stress="-7.270222438796866e-06 -1.754373792984457e-05 -1.034984320506392e-05 -1.754373792984457e-05 4.774154427720649e-06 8.634658008023251e-06 -1.034984320506392e-05 8.634658008023251e-06 7.109344657576586e-06" free_energy=-587.7062841497119 pbc="F F F"
C        0.51064542      -0.33200959       0.00168674        0      -1.43107391       1.90420402       1.09341705      -0.13647497       0.55004399      -1.94642517      -0.13647497       0.55004399      -1.94642517     -59.15580811
O        1.56386083      -0.87103251       0.02594749        0      -0.09862794       0.84036993       0.71590221       0.32353584       0.08126226       0.49817711       0.32353584       0.08126226       0.49817711    -109.82073191
O       -0.01345697       0.39320716       1.01594476        0       1.18244186      -0.70694624      -1.78610863      -1.22028441      -0.82367192       0.51205263      -1.22028441      -0.82367192       0.51205263    -110.28800245
O       -0.23315063      -0.51209282      -1.22314787        0      -0.53624553       0.41031220      -0.11606377       0.25166009       1.33969722       2.71360265       0.25166009       1.33969722       2.71360265    -110.26517374
C       -0.20342762       1.78983242       1.10494735        0       0.70065207       0.04262907       1.20986725      -2.54885295       1.39104491       1.17147562      -2.54885295       1.39104491       1.17147562     -57.60043455
C       -1.60570589      -0.63516410      -0.94168712        0       1.18035861      -2.88326767      -1.56837128       0.51105491       0.64460747       1.99841466       0.51105491       0.64460747       1.99841466     -58.01732102
H        0.49384439       2.35780170       1.55623620        0       0.24268521      -0.03000922      -0.10560776       3.07736929       0.16081351       1.04274262       3.07736929       0.16081351       1.04274262     -13.73969072
H        0.53047578       2.34611135       0.65908345        0      -0.28670388       0.46964374       0.51916101       0.10368736       1.12351602      -1.18271846       0.10368736       1.12351602      -1.18271846     -13.95708136
H       -1.12165130       2.44050259       1.56369864        0      -0.25879215      -0.18393527      -0.03246873       0.59988186      -2.89472093      -1.95715965       0.59988186      -2.89472093      -1.95715965     -13.58465195
H       -1.74972362      -1.00838758       0.05014017        0      -0.19400843       0.29738073       0.37812224      -0.50985498      -0.28394528      -0.60130045      -0.50985498      -0.28394528      -0.60130045     -13.64103951
H       -2.25804168       0.08704623      -0.47864851        0       0.03773037      -0.14561711      -0.05785526       1.25746356      -0.01045434      -0.53312700       1.25746356      -0.01045434      -0.53312700     -13.74307182
H       -1.94370453      -1.08878740      -1.77919331        0      -0.53841628      -0.01476416      -0.24999434      -1.70918561      -1.27819291      -1.71573457      -1.70918561      -1.27819291      -1.71573457     -13.89327702
12
Properties=species:S:1:pos:R:3:molID:I:1:momenta:R:3:force_mace:R:3:forces:R:3:energies:R:1 Nmols=1 Comp=DMC(1) energy_mace=-587.5082466081014 energy=-587.5082466081014 stress="-1.4290569672486716e-05 1.7985628473115438e-06 1.1821618807267745e-06 1.7985628473115438e-06 -8.985649149685425e-07 -1.4819696171719885e-06 1.1821618807267745e-06 -1.4819696171719885e-06 -1.109283235548588e-05" free_energy=-587.5082466081014 pbc="F F F"
C        0.49129323      -0.25169784      -0.04876759        0       1.32810808      -0.56112342      -2.27037017       0.33520685      -1.31075793      -0.83437662       0.33520685      -1.31075793      -0.83437662     -59.28980211
O        1.52903896      -0.80745364       0.07825146        0      -0.38674284       1.66103944       0.78036789       1.27431828      -0.18209090      -0.21402481       1.27431828      -0.18209090      -0.21402481    -109.63035720
O       -0.03351692       0.38127453       0.96667130        0      -1.53381430       0.87182670       0.49584259      -0.36347764       1.65618221       0.84821675      -0.36347764       1.65618221       0.84821675    -110.23492956
O       -0.23955020      -0.50328602      -1.18280727        0       0.73112585      -0.26826261       0.23507821       1.74778094      -0.48755878      -1.36434964       1.74778094      -0.48755878      -1.36434964    -110.38029171
C       -0.10640624       1.84994479       1.23837372        0       0.96849804       0.45920364       1.72813824      -7.50256272      -5.41824236      -0.57797564      -7.50256272      -5.41824236      -0.57797564     -57.46507750
C       -1.56572220      -0.82336888      -1.07386081        0      -0.30823872      -1.43709879      -1.39563126      -1.95640381       3.97998919       4.55481574      -1.95640381       3.97998919       4.55481574     -57.69889581
H        0.70486483       2.22399440       1.59991466        0      -0.05679658      -0.00791292       0.19913710       2.78984309       2.04444001       1.54349849       2.78984309       2.04444001       1.54349849     -13.90911829
H        0.35571952       2.63809549       0.85436550        0      -0.08164628      -0.15760953       0.09060492       1.63081744       0.90222187      -1.12304598       1.63081744       0.90222187      -1.12304598     -14.01071190
H       -1.23463703       1.73872004       1.43675020        0      -0.22414247      -0.42923334       0.22153096       2.00765899       1.75521354       0.43094981       2.00765899       1.75521354       0.43094981     -13.63748952
H       -2.10986796      -0.62205668      -0.15992659        0      -0.58308818      -0.00611184       0.01591792       0.66370305      -1.09361948       0.85311035       0.66370305      -1.09361948       0.85311035     -13.73381093
H       -1.99187449       0.03371399      -0.45813500        0       0.01868728       0.14234211      -0.17158404      -0.51321615      -0.50305097      -1.38721447      -0.51321615      -0.50305097      -1.38721447     -13.50712230
H       -2.17388546      -1.22935012      -1.75641328        0       0.12805012      -0.26705945       0.07096764      -0.11366832      -1.34272641      -2.72960398      -0.11366832      -1.34272641      -2.72960398     -14.01063978
12
Properties=species:S:1:pos:R:3:molID:I:1:momenta:R:3:force_mace:R:3:forces:R:3:energies:R:1 Nmols=1 Comp=DMC(1) energy_mace=-587.8661792813447 energy=-587.8661792813447 stress="1.0528070334530856e-05 -1.1023392836411966e-05 -2.829074183233259e-06 -1.1023392836411966e-05 5.180855971144413e-06 4.229450945249322e-06 -2.829074183233259e-06 4.229450945249322e-06 -7.851439099548476e-06" free_energy=-587.8661792813447 pbc="F F F"
C        0.52587039      -0.30355852      -0.16737298        0       0.30761274      -0.83226269       0.14045131       2.27074929       0.66767122       4.42399754       2.27074929       0.66767122       4.42399754     -59.12654525
O        1.62014670      -0.74276631       0.10978279        0       2.29501929       0.57287429       0.01022422      -1.58640014       0.88553792      -0.94010036      -1.58640014       0.88553792      -0.94010036    -109.73902611
O       -0.11688207       0.45402115       0.97255667        0      -1.24274805       1.21878391      -0.48359423      -0.23045581      -1.26307691      -0.56418122      -0.23045581      -1.26307691      -0.56418122    -109.82297351
O       -0.17399658      -0.53881740      -1.19429181        0       0.23169339      -0.72933506      -0.68436472      -3.36970865      -0.38183662      -1.58294463      -3.36970865      -0.38183662      -1.58294463    -110.43107177
C       -0.14989509       1.79104970       1.36576253        0      -0.34897683      -0.60791608       1.61967899      -2.97320168      -0.62675264       0.02146349      -2.97320168      -0.62675264       0.02146349     -57.69687318
C       -1.66500739      -0.82217739      -1.10513071        0      -0.52040514       0.48051484      -1.20830537       3.91299506       0.56058964      -4.10017011       3.91299506       0.56058964      -4.10017011     -57.60440142
H        0.54101137       2.42629352       1.71622300        0      -0.25232902      -0.08321916       0.20380290       2.72310259       0.27636322       1.54941243       2.72310259       0.27636322       1.54941243     -13.83908813
H        0.58667345       2.39979206       0.96387049        0       0.06380550      -0.39255818       0.02735998       0.00301070       1.03656177      -1.45420871       0.00301070       1.03656177      -1.45420871     -13.90448675
H       -1.13765189       2.09102107       1.80714886        0      -0.16774740       0.75252180       0.34758707       0.63174685      -0.90133027      -1.18390350       0.63174685      -0.90133027      -1.18390350     -13.92717504
H       -2.12924130      -0.86184948      -0.26623260        0      -0.13717743      -0.22482796       0.21353819      -1.89070908       0.72939745       2.91028351      -1.89070908       0.72939745       2.91028351     -13.82333104
H       -2.36648683      -0.05272017      -0.97925671        0      -0.72970536      -0.14043177      -0.41367648       0.75231797      -0.67288599       0.94819982       0.75231797      -0.67288599       0.94819982     -13.90584890
H       -1.81909274      -1.49649181      -1.90873197        0       0.50095831      -0.01414393       0.22729814      -0.24344710      -0.31023879      -0.02784827      -0.24344710      -0.31023879      -0.02784827     -14.04535817
12
Properties=species:S:1:pos:R:3:molID:I:1:momenta:R:3:force_mace:R:3:forces:R:3:energies:R:1 Nmols=1 Comp=DMC(1) energy_mace=-587.8747337320448 energy=-587.8747337320448 stress="7.645648287040306e-06 -5.4441241011868675e-06 9.110871243115813e-06 -5.4441241011868675e-06 6.453322293887003e-06 9.321660910865479e-06 9.110871243115813e-06 9.321660910865479e-06 7.632329783682224e-06" free_energy=-587.8747337320448 pbc="F F F"
C        0.58348784      -0.35321122      -0.07166433        0      -0.51052154       0.25780458       1.29111462      -2.79570980       2.20091005      -0.56441355      -2.79570980       2.20091005      -0.56441355     -58.93795262
O        1.70863597      -0.66562089       0.07611850        0       1.29849193       1.75010062      -0.66505969      -0.36748602      -0.11021472      -0.11926982      -0.36748602      -0.11021472      -0.11926982    -110.01897319
O       -0.17432134       0.46254875       0.90379152        0      -0.84110285      -0.79942407      -1.65989658      -0.48196022      -1.75007951      -0.67275969      -0.48196022      -1.75007951      -0.67275969    -109.68061479
O       -0.20977088      -0.56284860      -1.22461506        0      -1.33296741       0.04258798       0.73351223       0.18596913       0.76708222       2.23769646       0.18596913       0.76708222       2.23769646    -110.12361943
C       -0.19472932       1.76667075       1.52580481        0       1.40719921       0.00178416       1.18725137       0.54006829      -1.31952739      -2.26489935       0.54006829      -1.31952739      -2.26489935     -57.79391063
C       -1.66037371      -0.79699518      -1.18120729        0       1.43399573      -1.27857660      -1.22096064       3.19772880      -3.05167323      -3.04474682       3.19772880      -3.05167323      -3.04474682     -57.57604473
H        0.71209750       2.03923444       1.92614608        0      -0.16288920      -0.73530854      -0.10876692       0.02094886       0.69582037       0.40946546       0.02094886       0.69582037       0.40946546     -13.99721829
H        0.43618702       2.43953778       1.09713309        0       0.02698778       0.18968178       0.23345117       2.30031786       0.48892146      -0.28808450       2.30031786       0.48892146      -0.28808450     -13.81580641
H       -1.12119808       2.21601714       1.57513694        0      -0.66803729      -0.32165722      -0.18940117      -1.68819079      -0.50146119       1.06172420      -1.68819079      -0.50146119       1.06172420     -14.02971249
H       -2.26529377      -0.64395608      -0.42672199        0      -0.25627093       0.49508599       0.08555580      -1.14117522       0.14265802       3.33000700      -1.14117522       0.14265802       3.33000700     -13.98834389
H       -2.55677446      -0.25832771      -1.11197046        0      -0.14260589       0.39130767      -0.04916053       0.27077458       1.58228204      -0.66373890       0.27077458       1.58228204      -0.66373890     -14.02744600
H       -1.76143375      -1.72868422      -1.78425710        0      -0.25227956       0.00661365       0.36236033      -0.04128548       0.85528188       0.57901949      -0.04128548       0.85528188       0.57901949     -13.88509125
12
Properties=species:S:1:pos:R:3:molID:I:1:momenta:R:3:force_mace:R:3:forces:R:3:energies:R:1 Nmols=1 Comp=DMC(1) energy_mace=-587.794757173513 energy=-587.794757173513 stress="-1.0840821233676955e-05 1.6390988873850973e-05 2.4859008315282338e-05 1.6390988873850973e-05 6.978106634715215e-06 -2.59502429153169e-06 2.4859008315282338e-05 -2.59502429153169e-06 -1.1336711490908937e-05" free_energy=-587.794757173513 pbc="F F F"
C        0.52954969      -0.27540723       0.00863621        0       0.08915466       1.45081766      -0.22336384       2.66923498      -0.80939725      -2.94745425       2.66923498      -0.80939725      -2.94745425     -59.21743587
O        1.71473827      -0.53406557       0.02462515        0      -1.16285190       2.46243852      -0.92605161      -2.09804746       0.28786338       0.30727319      -2.09804746       0.28786338       0.30727319    -109.77988416
O       -0.22039846       0.39844731       0.76914653        0      -1.27741669      -0.83348846      -1.79295939      -1.64737803       1.33738561       2.18178326      -1.64737803       1.33738561       2.18178326    -110.27919631
O       -0.25294933      -0.55058128      -1.12306593        0       0.52150819       0.16565989       2.04562340       2.99553025      -1.32087073      -0.63369048       2.99553025      -1.32087073      -0.63369048    -109.96707427
C       -0.16877126       1.70365947       1.51881394        0       0.46544342      -1.85547971      -0.83171216       4.05130308      -2.04689830      -0.23220915       4.05130308      -2.04689830      -0.23220915     -57.57289160
C       -1.58685497      -0.87582324      -1.19982656        0       0.22518052      -1.04423398       0.82365603       0.52867633      -2.69574500      -1.80093922       0.52867633      -2.69574500      -1.80093922     -57.94568498
H        0.75636829       1.92193945       2.12024676        0      -0.50812427      -0.12010428       0.15970406      -1.12680694      -1.01404107      -0.00748286      -1.12680694      -1.01404107      -0.00748286     -13.86055052
H        0.69546412       2.27915700       1.41987885        0       0.37450807      -0.19221119       0.12518727      -0.11646516       1.04405168      -1.22590930      -0.11646516       1.04405168      -1.22590930     -13.98975974
H       -1.10540122       1.61138604       1.81258253        0       0.17001122      -0.42533291       0.62616069      -3.13065028       1.37188511       1.39647923      -3.13065028       1.37188511       1.39647923     -13.72689188
H       -2.08881018      -0.44117059      -0.51219160        0       0.28128768      -0.00512169       0.18298980      -2.67719291       2.19959378       2.73989970      -2.67719291       2.19959378       2.73989970     -13.67533641
H       -2.11221982       0.00897458      -1.36411792        0       0.50156997       0.33334909      -0.45753983      -0.92633269      -0.35247898      -0.06307286      -0.92633269      -0.35247898      -0.06307286     -13.82877620
H       -1.97322405      -1.92089087      -1.54053852        0       0.31972912       0.06370705       0.26830560       1.47812882       1.99865177       0.28532276       1.47812882       1.99865177       0.28532276     -13.95127525
12
Properties=species:S:1:pos:R:3:molID:I:1:momenta:R:3:force_mace:R:3:forces:R:3:energies:R:1 Nmols=1 Comp=DMC(1) energy_mace=-588.7474291122167 energy=-588.7474291122167 stress="-3.07679459764585e-05 -1.8473065334952343e-06 2.0290067780742083e-06 -1.8473065334952343e-06 -4.096701960640305e-06 -1.1737256830741829e-05 2.0290067780742083e-06 -1.1737256830741829e-05 -1.9966665090423624e-05" free_energy=-588.7474291122167 pbc="F F F"
C        0.53279024      -0.18954444      -0.06132779        0      -1.50513221       1.13754295      -0.86609902      -0.13059739       0.47714454       0.85253707      -0.13059739       0.47714454       0.85253707     -59.27166075
O        1.68246950      -0.37852365      -0.02330515        0       1.60556527       2.80185572      -0.32393081       2.45205934       0.39343098       1.18604694       2.45205934       0.39343098       1.18604694    -109.71722342
O       -0.34713624       0.39378477       0.75285686        0      -2.65140025      -0.13872416       0.77483193      -1.08761567      -0.90102583       0.22079253      -1.08761567      -0.90102583       0.22079253    -110.39461070
O       -0.13321413      -0.60011407      -1.04874518        0       1.89410987      -1.95018816      -0.29817820      -2.22994741      -1.78642558      -3.67666149      -2.22994741      -1.78642558      -3.67666149    -110.17976133
C       -0.16881690       1.49689622       1.53129366        0      -0.65139304      -2.86848798       1.68533594       2.32078812      -0.78929517       0.29617157       2.32078812      -0.78929517       0.29617157     -57.91251804
C       -1.54637177      -0.86570125      -1.12357548        0       1.26887501       0.14165554       1.07447204       1.09759689      -2.48483178      -2.32870238       1.09759689      -2.48483178      -2.32870238     -57.89892707
H        0.73818669       1.61946429       2.06936598        0       0.46789058      -0.23253089      -0.59289198      -0.11376250       0.44552590      -0.84808818      -0.11376250       0.44552590      -0.84808818     -13.90518915
H        0.50599335       2.19947611       1.27556161        0      -0.20701343       0.05800667      -0.28110363       1.51926782       0.93502560       0.16501374       1.51926782       0.93502560       0.16501374     -13.91473224
H       -1.02610400       1.70032804       1.98102968        0       0.46361809       0.46184007      -0.44168749      -3.14562479       0.97126843       1.62680138      -3.14562479       0.97126843       1.62680138     -13.84151820
H       -2.17783210      -0.19445193      -0.69988736        0      -0.47622941       0.35345291      -0.62154194      -0.97796527       0.51586277       0.49433080      -0.97796527       0.51586277       0.49433080     -13.96505454
H       -2.11490526      -0.10368790      -1.61978177        0      -0.42810426       0.00127985      -0.22554648       0.28801257      -0.17013086       0.66454020       0.28801257      -0.17013086       0.66454020     -13.91417926
H       -1.67136522      -1.97246618      -1.51159265        0       0.21921376       0.23429750       0.11633963       0.00778828       2.39345099       1.34721782       0.00778828       2.39345099       1.34721782     -13.83205442
12
Properties=species:S:1:pos:R:3:molID:I:1:momenta:R:3:force_mace:R:3:forces:R:3:energies:R:1 Nmols=1 Comp=DMC(1) energy_mace=-587.8449517972421 energy=-587.8449517972421 stress="8.917402933624001e-07 -1.0440881228612146e-05 -1.479047439719182e-05 -1.0440881228612146e-05 5.216367193449834e-06 1.9628595845307278e-06 -1.479047439719182e-05 1.9628595845307278e-06 -3.3568605877342766e-06" free_energy=-587.8449517972421 pbc="F F F"
C        0.50788142      -0.09018922      -0.06603032        0       1.09571389       1.12919167       0.39748573      -0.26454841      -1.78087269      -0.61418239      -0.26454841      -1.78087269      -0.61418239     -59.17876982
O        1.70692383      -0.18000113      -0.00474366        0      -0.78793037       3.85073324       0.36444413      -1.38134918       1.31590565       1.05353453      -1.38134918       1.31590565       1.05353453    -109.79839642
O       -0.51027964       0.35668839       0.75553129        0      -2.23742198      -1.22151541      -0.10438614       1.33719343      -0.88386568      -0.32326135       1.33719343      -0.88386568      -0.32326135    -110.39355569
O       -0.07073200      -0.75227254      -1.11901842        0       0.69009275      -1.82033006      -1.45258270      -0.22182373       1.66175894       0.83275900      -0.22182373       1.66175894       0.83275900    -110.36884374
C       -0.15277304       1.38623794       1.66528865        0       0.39118059       0.85046781       1.01896988      -0.65822216       1.14322440      -2.23618500      -0.65822216       1.14322440      -2.23618500     -57.74151885
C       -1.47757930      -0.83688666      -1.13411055        0       0.83710594      -1.28459111      -1.02841531       3.10928578      -8.02299691      -0.13381793       3.10928578      -8.02299691      -0.13381793     -57.73289846
H        0.86669509       1.60570119       1.56681874        0      -0.12264443      -0.18308046       0.12638414       0.83896830      -0.34532700       1.52571664       0.83896830      -0.34532700       1.52571664     -13.77366229
H        0.51442271       2.03547008       1.15669113        0      -0.08718612      -0.38566576      -0.02031668       0.57990944       1.05150131      -0.42954227       0.57990944       1.05150131      -0.42954227     -13.62585924
H       -1.03741776       1.86565082       2.00319881        0       0.54037288      -0.65277927       0.21581240       0.07956387      -0.64286681       1.14640914       0.07956387      -0.64286681       1.14640914     -14.01573060
H       -2.19635497      -0.23973177      -0.78914841        0       0.01724105      -0.00741398       0.42751317      -0.57680259       1.09092637      -0.28682378      -0.57680259       1.09092637      -0.28682378     -13.94769820
H       -1.96227647      -0.32773271      -1.80870650        0       0.11926650      -0.02990819      -0.29771072      -1.94586040       1.79869980      -0.87901165      -1.94586040       1.79869980      -0.87901165     -13.82391827
H       -1.55244000      -2.09072648      -1.20998126        0      -0.45579071      -0.24510848       0.35280210      -0.89631436       3.61391263       0.34440507      -0.89631436       3.61391263       0.34440507     -13.44410022
12
Properties=species:S:1:pos:R:3:molID:I:1:momenta:R:3:force_mace:R:3:forces:R:3:energies:R:1 Nmols=1 Comp=DMC(1) energy_mace=-588.6050320683923 energy=-588.6050320683923 stress="2.226845745433121e-05 6.013501590794763e-06 -7.138665666646001e-06 6.013501590794763e-06 9.219642566021712e-06 5.510078252354665e-06 -7.138665666646001e-06 5.510078252354665e-06 6.5254324923133945e-06" free_energy=-588.6050320683923 pbc="F F F"
C        0.46157280      -0.13133935      -0.04813847        0      -2.01902312      -1.48455323      -0.56185051       0.75709923       0.24010971      -1.16150746       0.75709923       0.24010971      -1.16150746     -59.31948580
O        1.66301788       0.10598791       0.01393829        0      -0.54180871       5.15214954       0.63593824      -2.94100984      -0.22783015       0.70759074      -2.94100984      -0.22783015       0.70759074    -109.80803886
O       -0.56833499       0.28232910       0.75754606        0       1.06825124      -0.54215783       0.74749910       2.92831376       1.59974260       0.74236254       2.92831376       1.59974260       0.74236254    -110.20043761
O       -0.00870817      -0.80947990      -1.16117244        0       1.11419649      -0.76442815      -0.20587916      -0.11983040      -0.66009350       1.09023282      -0.11983040      -0.66009350       1.09023282    -110.34746507
C       -0.10615741       1.42471983       1.67765279        0      -0.03638816      -0.57383455      -0.21562537      -3.03104394      -4.43264141       0.71690312      -3.03104394      -4.43264141       0.71690312     -57.82269043
C       -1.41329586      -1.00212560      -1.22669745        0       0.56100561      -1.82906550      -0.59829391      -2.19783121      -0.38346804       1.89748344      -2.19783121      -0.38346804       1.89748344     -57.73364695
H        0.91456026       1.32609860       1.82591613        0      -0.44454311      -0.13608964      -0.04052575       0.00407379       1.03664451      -0.58471098       0.00407379       1.03664451      -0.58471098     -13.83547286
H        0.48891659       2.06708632       1.20069212        0      -0.03103323      -0.01719644       0.51218075       1.38865969       0.82471785      -0.08946428       1.38865969       0.82471785      -0.08946428     -13.86104717
H       -0.87958179       1.40145097       2.47659023        0       0.68183416      -0.42761550      -0.12127352       1.06235555       0.79584872      -1.01404939       1.06235555       0.79584872      -1.01404939     -14.06455089
H       -1.93757007      -0.09957715      -0.89439282        0       0.06609065       0.76241961      -0.29980615      -0.20903998      -0.60251032      -0.22045094      -0.20903998      -0.60251032      -0.22045094     -13.80153499
H       -1.99896799      -0.34945250      -1.75372392        0      -0.13319400       0.32905290      -0.01651931      -0.17017414       0.71601120      -1.38276623      -0.17017414       0.71601120      -1.38276623     -13.96459692
H       -2.05761016      -1.92342410      -0.90274568        0      -0.28538782      -0.46868122       0.16415561       2.52842750       1.09346883      -0.70162338       2.52842750       1.09346883      -0.70162338     -13.84606451
12
Properties=species:S:1:pos:R:3:molID:I:1:momenta:R:3:force_mace:R:3:forces:R:3:energies:R:1 Nmols=1 Comp=DMC(1) energy_mace=-588.6910536059686 energy=-588.6910536059686 stress="3.630077020138288e-06 5.492340963931523e-06 4.0495113602461195e-06 5.492340963931523e-06 8.239450329489431e-07 3.841244981247448e-06 4.0495113602461195e-06 3.841244981247448e-06 3.663693260689734e-06" free_energy=-588.6910536059686 pbc="F F F"
C        0.43857168      -0.18598973      -0.11078551        0       1.60285530       1.10463083      -0.64231718       2.10447163       3.03551758       0.91464464       2.10447163       3.03551758       0.91464464     -59.34985806
O        1.53099019       0.35786025       0.06127774        0      -3.27775671       2.81743631       0.68615101      -0.48711498      -2.00673278      -1.56432206      -0.48711498      -2.00673278      -1.56432206    -109.59854336
O       -0.46994322       0.25924446       0.80524894        0       1.50227340      -0.26952299       0.80206297      -1.55926324      -0.81530756      -0.64280754      -1.55926324      -0.81530756      -0.64280754    -110.38951993
O        0.03128132      -0.90220799      -1.14029951        0       0.12019410      -1.57935852       0.41248855      -1.03407418       0.16959720       0.39868619      -1.03407418       0.16959720       0.39868619    -110.35472040
C       -0.10666247       1.30956876       1.64212127        0       0.87906830      -1.63298046       0.25879019       0.39383645      -1.32805912       3.05595552       0.39383645      -1.32805912       3.05595552     -57.83111585
C       -1.48046208      -1.00159581      -1.25306689        0      -0.44348527       1.04320750      -0.45614433       3.68252245      -3.54360378       0.47639730       3.68252245      -3.54360378       0.47639730     -57.78764106
H        0.98773900       1.56538950       1.75866594        0      -0.44621289       0.03629100      -0.06801345      -1.07772866      -0.97139590       0.33569914      -1.07772866      -0.97139590       0.33569914     -13.75629693
H        0.50658116       2.09692090       1.51629576        0      -0.43001901      -0.14384842       0.03578463       0.11903924       1.83340383      -1.38410702       0.11903924       1.83340383      -1.38410702     -13.91986509
H       -0.74369687       1.23924983       2.55395465        0       0.05295691      -0.13293034      -0.44492764       0.49009572       0.37262831      -1.18480650       0.49009572       0.37262831      -1.18480650     -13.91150522
H       -1.86471470      -0.08192005      -1.26009824        0      -0.37929112       0.25214650      -0.16053134      -1.43767239       1.13437407      -0.72796205      -1.43767239       1.13437407      -0.72796205     -13.85693009
H       -1.79142190      -0.56444930      -2.13490608        0       0.48380749      -0.79391375      -0.48760293      -0.33504147       0.80281967       0.53787173      -0.33504147       0.80281967       0.53787173     -13.92979123
H       -1.62999934      -2.04932732      -0.91870714        0       0.33560949      -0.70115766       0.06425954      -0.85907055       1.31675850      -0.21524936      -0.85907055       1.31675850      -0.21524936     -14.00526638
12
Properties=species:S:1:pos:R:3:molID:I:1:momenta:R:3:force_mace:R:3:forces:R:3:energies:R:1 Nmols=1 Comp=DMC(1) energy_mace=-588.3781680988202 energy=-588.3781680988202 stress="5.503493680100872e-07 6.6176412642199666e-06 1.1922652588803876e-05 6.6176412642199666e-06 -1.5814540330103632e-05 1.1129046220472741e-05 1.1922652588803876e-05 1.1129046220472741e-05 -3.792100980665422e-06" free_energy=-588.3781680988202 pbc="F F F"
C        0.47076476      -0.07941317      -0.19379380        0      -1.44359107       0.81138724      -1.02190978      -0.77298139       0.33255962       2.22220857      -0.77298139       0.33255962       2.22220857     -59.17428041
O        1.47111784       0.51814584       0.08558241        0       1.50123305       2.38218901       0.05900981       2.34746800      -0.92315415      -3.02677272       2.34746800      -0.92315415      -3.02677272    -109.61304929
O       -0.43657044       0.19173351       0.81630244        0      -0.28094599      -1.97904166      -0.53448518      -1.47062338      -1.80385266      -0.80284250      -1.47062338      -1.80385266      -0.80284250    -110.26149180
O        0.03722163      -0.97198413      -1.11164617        0      -0.27133578      -0.49516556       0.71153035      -0.69454054       1.35705060       0.76303234      -0.69454054       1.35705060       0.76303234    -110.37875628
C       -0.08710024       1.18079636       1.69770513        0      -0.61513791      -0.45007166       0.83214924      -1.95442927       0.19141249       2.81709357      -1.95442927       0.19141249       2.81709357     -57.99454269
C       -1.42077427      -1.01163604      -1.28095551        0       2.22424268      -0.48246895      -0.20506668       2.63346677      -2.95503690       1.24872594       2.63346677      -2.95503690       1.24872594     -57.65666417
H        0.89727299       1.63419299       1.95050219        0      -0.53400373       0.13112858      -0.00213161      -2.12006104      -1.01097511      -1.31271390      -2.12006104      -1.01097511      -1.31271390     -13.84486098
H        0.21876867       2.02474311       1.29452927        0       0.11500556      -0.55394015      -0.01962977       2.09566382       2.42489561      -0.42230167       2.09566382       2.42489561      -0.42230167     -13.72292391
H       -0.92288047       1.28444782       2.40720625        0       0.24204399       0.35446353      -0.20568525       0.91313836      -0.35745238      -0.07204338       0.91313836      -0.35745238      -0.07204338     -13.89964082
H       -2.07158040      -0.31489915      -1.47005142        0      -0.11016080       0.07094779      -0.26154425      -1.37263717       4.13325318      -0.50126768      -1.37263717       4.13325318      -0.50126768     -13.85949921
H       -1.71783408      -0.67821160      -2.20210182        0      -0.09188638       0.37649526       0.09687032      -0.39854648      -0.06035338      -1.46269928      -0.39854648      -0.06035338      -1.46269928     -13.99658088
H       -1.95212437      -1.82223678      -0.85000950        0      -0.73546361      -0.16592345       0.55089282       0.79408232      -1.32834692       0.54958069       0.79408232      -1.32834692       0.54958069     -13.97587766
12
Properties=species:S:1:pos:R:3:molID:I:1:momenta:R:3:force_mace:R:3:forces:R:3:energies:R:1 Nmols=1 Comp=DMC(1) energy_mace=-588.3883727408012 energy=-588.3883727408012 stress="1.2523570335596126e-06 9.453480153094675e-06 6.835712573058897e-06 9.453480153094675e-06 6.452368424030202e-06 1.850654179605779e-05 6.835712573058897e-06 1.850654179605779e-05 -8.988442632759957e-07" free_energy=-588.3883727408012 pbc="F F F"
C        0.44503173       0.03533568      -0.17007073        0       0.94066316       1.09331322       1.25364776       1.21871770      -1.98050880       0.80339596       1.21871770      -1.98050880       0.80339596     -59.13613903
O        1.52783341       0.56416889       0.00121976        0      -1.00917902      -0.59618284      -2.32160977      -1.57580155      -0.75128312      -1.55950871      -1.57580155      -0.75128312      -1.55950871    -109.84214664
O       -0.47209471       0.05195900       0.79519881        0       0.04251634      -1.90369697       0.37988035      -0.03408674       2.35462838       1.69860225      -0.03408674       2.35462838       1.69860225    -110.36431442
O        0.02356342      -0.97679963      -1.07230759        0       0.11412489       0.84115914      -0.11484805       2.99816514       1.25987654       0.27728300       2.99816514       1.25987654       0.27728300    -110.14015170
C       -0.19469778       1.18079715       1.74228039        0      -1.37000017       1.38945047      -0.45676749       0.32942830       0.01385856       0.15364706       0.32942830       0.01385856       0.15364706     -57.88991033
C       -1.34940818      -1.03471014      -1.29423247        0       0.17820060       0.52525848       0.22258812       2.07274981       1.58697304       1.02194620       2.07274981       1.58697304       1.02194620     -57.90565893
H        0.88996845       1.56860144       1.84371601        0       0.06354859      -0.73037086      -0.04935672      -2.35606932      -1.41235695       0.07717935      -2.35606932      -1.41235695       0.07717935     -13.77202072
H        0.30980457       1.94240987       1.28321698        0      -0.42535319      -0.34363264       0.50452995       0.62535636       1.12635716      -0.78567092       0.62535636       1.12635716      -0.78567092     -13.87005286
H       -0.98570457       1.45275023       2.47834392        0       0.13893189      -0.08460082      -0.04848517       0.89133759      -1.16043995      -0.84907514       0.89133759      -1.16043995      -0.84907514     -14.05928030
H       -1.58719251      -0.03566711      -1.37532982        0       0.83611647       0.10919156       0.36448231      -1.83039465       0.06893205      -1.15996152      -1.83039465       0.06893205      -1.15996152     -13.58301185
H       -1.74334707      -0.73432193      -2.15106350        0       0.04998547      -0.11992842      -0.29760266      -0.41069129       1.05037710      -1.31442803      -0.41069129       1.05037710      -1.31442803     -13.89991044
H       -1.75166905      -1.64285486      -0.61705102        0       0.44044496      -0.17996033       0.56354137      -1.92871134      -2.15641401       1.63659049      -1.92871134      -2.15641401       1.63659049     -13.92577552
12
Properties=species:S:1:pos:R:3:molID:I:1:momenta:R:3:force_mace:R:3:forces:R:3:energies:R:1 Nmols=1 Comp=DMC(1) energy_mace=-588.4627082017888 energy=-588.4627082017888 stress="-2.6048885507241518e-06 -8.78825148841113e-06 -7.0078537933125635e-06 -8.78825148841113e-06 5.830193042067846e-07 -4.36075211896215e-06 -7.0078537933125635e-06 -4.36075211896215e-06 -3.998920161349203e-06" free_energy=-588.4627082017888 pbc="F F F"
C        0.42982012      -0.00838579      -0.10801036        0      -0.72341469      -1.58307252      -0.08691344       1.98120294      -0.70455940      -0.83771760       1.98120294      -0.70455940      -0.83771760     -59.33116603
O        1.49394620       0.56602576      -0.17164011        0      -0.51940077       0.63573290      -2.47256457      -1.42194423      -0.09697453       0.75044269      -1.42194423      -0.09697453       0.75044269    -109.85630507
O       -0.47955254       0.04992763       0.86675908        0      -0.15759334       1.34727308       1.20505548      -0.47486388       0.66419764      -0.89049950      -0.47486388       0.66419764      -0.89049950    -110.51376714
O        0.11494241      -0.91497598      -1.09038333        0       2.78870173       1.02824766       0.07588006       0.03744939       0.52837254       1.37474559       0.03744939       0.52837254       1.37474559    -110.33748659
C       -0.29442356       1.19685419       1.69893082        0      -0.64494268      -0.94800346      -0.33701308      -0.14183340      -4.25642689       3.31458721      -0.14183340      -4.25642689       3.31458721     -57.84861384
C       -1.30728459      -1.01437243      -1.18022345        0       0.71627296       0.00067005       2.22862795       1.09048493       3.64444248      -2.61346451       1.09048493       3.64444248      -2.61346451     -57.77808209
H        0.72831349       1.01582231       2.04664759        0       0.02817271       0.21968460       0.38701414      -0.57682617       2.06616069      -0.76809404      -0.57682617       2.06616069      -0.76809404     -13.48471594
H        0.37826203       1.85578174       1.39680663        0      -0.15606287      -0.67286933       0.11921227       1.26977565       0.94461351       0.02882839       1.26977565       0.94461351       0.02882839     -13.76970020
H       -1.01403018       1.09026419       2.55377920        0       0.04089352      -0.27850527      -0.23738940       0.52588151       1.16107318      -1.61092647       0.52588151       1.16107318      -1.61092647     -13.97355542
H       -1.71699817      -0.01052721      -1.53902625        0      -0.84056616      -0.13099854      -0.40910526       0.01180325      -1.06978999       1.35864910       0.01180325      -1.06978999       1.35864910     -13.69006598
H       -1.60044919      -0.61918519      -2.08172867        0      -0.08702289       0.18239811       0.04140443      -0.82717970      -0.80904573      -1.77939447      -0.82717970      -0.80904573      -1.77939447     -13.86791619
H       -1.71600342      -1.66555712      -0.56086547        0      -0.44503751       0.19944272      -0.51420858      -1.47395030      -2.07206350       1.67284360      -1.47395030      -2.07206350       1.67284360     -14.01133373
12
Properties=species:S:1:pos:R:3:molID:I:1:momenta:R:3:force_mace:R:3:forces:R:3:energies:R:1 Nmols=1 Comp=DMC(1) energy_mace=-587.4023943654631 energy=-587.4023943654631 stress="2.6086301517339824e-05 -7.739921489849998e-06 -2.7107328630144412e-05 -7.739921489849998e-06 -2.1788217559550598e-05 -7.816552129765559e-06 -2.7107328630144412e-05 -7.816552129765559e-06 -5.718954765878472e-06" free_energy=-587.4023943654631 pbc="F F F"
C        0.50742378      -0.07454647      -0.17037327        0       1.72384048       0.47577367      -0.08746288      -1.14311484       1.72274704       2.71594220      -1.14311484       1.72274704       2.71594220     -59.13578767
O        1.42316289       0.64392630      -0.27005551        0      -1.10061097       1.55553863      -0.52196581       1.90097184       1.54943117       1.09423784       1.90097184       1.54943117       1.09423784    -109.84303278
O       -0.48264922       0.06498076       0.91543045        0       0.65245977      -1.09098530      -0.15936203       1.67863096      -2.38419096      -2.29111082       1.67863096      -2.38419096      -2.29111082    -110.35280769
O        0.20747091      -0.87942149      -1.08878533        0      -0.76414162      -0.21909123      -0.64652554      -5.17273254      -1.99565815      -1.20583047      -5.17273254      -1.99565815      -1.20583047    -110.38558872
C       -0.27579459       1.04993449       1.77584001        0       0.80280241      -0.65464027       1.73286955      -2.44318930       3.78148966       0.71216125      -2.44318930       3.78148966       0.71216125     -57.77049049
C       -1.33241432      -0.95459054      -1.11191080        0      -0.33016061      -0.28033419       0.07423463       1.37637948      -4.10311274      -0.98167435       1.37637948      -4.10311274      -0.98167435     -57.38535407
H        0.53378103       1.59613282       2.10808518        0      -0.14859528       0.33434787       0.09427862       1.04767741      -0.85750026       0.84780878       1.04767741      -0.85750026       0.84780878     -13.91362628
H        0.46072528       1.83427034       1.37590410        0      -0.70637540      -0.05847152      -0.11348485      -1.44954765      -0.34502170       0.31479173      -1.44954765      -0.34502170       0.31479173     -13.63078410
H       -1.36933644       1.25329423       2.28037141        0      -0.16250148       0.39189773      -0.39994048       2.99070520      -0.42917507      -0.98857682       2.99070520      -0.42917507      -0.98857682     -13.54340382
H       -2.10492563      -0.36194642      -1.34992773        0      -0.53012168       0.38764555      -0.04265803      -0.21321197       2.03594850      -1.50072956      -0.21321197       2.03594850      -1.50072956     -13.85142360
H       -1.71699769      -1.00998189      -2.09234413        0      -0.10185672      -0.56269144      -0.06126156      -0.20226570       1.16048890       0.24198340      -0.20226570       1.16048890       0.24198340     -13.84559900
H       -1.86583407      -1.80748831      -0.65719111        0       0.66526111      -0.27898949       0.13127838       1.62969711      -0.13544638       1.04099682       1.62969711      -0.13544638       1.04099682     -13.74449614
12
Properties=species:S:1:pos:R:3:molID:I:1:momenta:R:3:force_mace:R:3:forces:R:3:energies:R:1 Nmols=1 Comp=DMC(1) energy_mace=-587.587739326873 energy=-587.587739326873 stress="1.6149127944108976e-05 2.111644173544056e-06 2.949186658485089e-06 2.111644173544056e-06 2.9070676395644126e-05 4.007383530273133e-06 2.949186658485089e-06 4.007383530273133e-06 1.5724642479621283e-05" free_energy=-587.587739326873 pbc="F F F"
C        0.54499905      -0.03669480      -0.12460496        0      -1.23963720       0.60451323       0.13663497      -0.99501267       1.41477117      -1.40920976      -0.99501267       1.41477117      -1.40920976     -59.15418337
O        1.42293481       0.80655304      -0.25460883        0       0.15580521       2.40183080       1.44891376      -1.64319573      -2.34843509       0.56473971      -1.64319573      -2.34843509       0.56473971    -109.88231487
O       -0.39002769      -0.05301665       0.86901380        0       2.41189266      -1.67685701      -1.00544546       1.89130951       1.88017822       1.67177077       1.89130951       1.88017822       1.67177077    -110.25015655
O        0.05334549      -0.89318542      -1.14089326        0      -2.88501224       0.48443237      -0.85508655       1.29702347       1.15091326       1.14135521       1.29702347       1.15091326       1.14135521    -110.21334444
C       -0.24875223       1.06724828       1.86130932        0      -0.09219964       1.14298776      -1.02887313      -3.88517786       2.15710680      -3.44570796      -3.88517786       2.15710680      -3.44570796     -57.72723357
C       -1.34836057      -1.08962610      -1.14016854        0       0.70108336      -3.35559901       0.14892485       1.34164308       0.59368655      -0.69849572       1.34164308       0.59368655      -0.69849572     -57.95906547
H        0.58945948       1.47264996       2.24600206        0       0.58354514      -0.29410336       0.15506177       0.52993725       0.32437924       0.08529916       0.52993725       0.32437924       0.08529916     -13.86473327
H        0.01022692       2.08021063       1.38562940        0       0.27391944      -0.10382467       0.52635120       1.19675740      -2.52411950       0.82713768       1.19675740      -2.52411950       0.82713768     -13.47232830
H       -1.27668023       1.43847848       2.22312105        0      -0.24170860      -0.29162986       0.69565508       1.65120456      -1.84190720       0.48291057       1.65120456      -1.84190720       0.48291057     -13.86462006
H       -1.87759648      -0.27663962      -1.61703646        0       0.07987102       0.50045552      -0.54513690      -0.45798103       0.09756581       0.87475267      -0.45798103       0.09756581       0.87475267     -13.85278575
H       -1.86118667      -0.99343585      -2.07783266        0      -0.08195474       0.21189521       0.03204949       0.20237268      -0.88417739      -0.05900839       0.20237268      -0.88417739      -0.05900839     -13.91957468
H       -1.12773015      -1.77816735      -0.36205065        0       0.33439560       0.37589902       0.29095090      -1.12888067      -0.01996187      -0.03554393      -1.12888067      -0.01996187      -0.03554393     -13.42739900
12
Properties=species:S:1:pos:R:3:molID:I:1:momenta:R:3:force_mace:R:3:forces:R:3:energies:R:1 Nmols=1 Comp=DMC(1) energy_mace=-586.9388946308782 energy=-586.9388946308782 stress="-4.040293542527009e-06 7.159530780363487e-06 4.910372114405327e-06 7.159530780363487e-06 8.78866767560164e-06 9.380542741636135e-06 4.910372114405327e-06 9.380542741636135e-06 4.44186763830101e-07" free_energy=-586.9388946308782 pbc="F F F"
C        0.48061730       0.07371796      -0.18221557        0      -0.21085492       1.91441991      -0.95693525      -1.20208926      -0.74653945       0.51647022      -1.20208926      -0.74653945       0.51647022     -59.14819251
O        1.37200809       0.85692541      -0.16358012        0      -1.85131342      -0.06916265       1.04486779       1.03762666       0.37123646      -1.52532522       1.03762666       0.37123646      -1.52532522    -109.87429543
O       -0.24635495      -0.06062122       0.89888519        0       1.42819640       0.66267268       1.81403812      -2.34112088       0.38521403       0.77687874      -2.34112088       0.38521403       0.77687874    -110.31798827
O       -0.04785323      -0.87663200      -1.12987958        0      -0.18484131      -0.49100511       1.74756795       2.18209699      -0.11781745       0.74353627       2.18209699      -0.11781745       0.74353627    -110.28563917
C       -0.31822716       1.11497637       1.78829361        0      -0.50470782       0.25363879      -1.19937274       5.38674227      -0.22906700       0.28532154       5.38674227      -0.22906700       0.28532154     -57.53216659
C       -1.28780854      -1.24637587      -1.24740115        0       0.85378419      -0.38366710      -1.90170860      -0.77622999       2.22856339       0.14698421      -0.77622999       2.22856339       0.14698421     -57.71465118
H        0.69404376       1.27324477       2.05684813        0       0.28708709      -0.05070842      -0.25005566       0.61711184       0.32419042       0.02255772       0.61711184       0.32419042       0.02255772     -13.59154644
H        0.61216014       1.91288901       1.80479618        0       0.17930181      -0.26229054      -0.02558188      -3.22721909      -1.54823103      -0.62783964      -3.22721909      -1.54823103      -0.62783964     -13.50766755
H       -0.87322385       0.86209774       2.62166185        0       0.35998404      -0.53201774       0.18063521      -1.69805567       0.32895134       0.10426097      -1.69805567       0.32895134       0.10426097     -14.01338555
H       -1.88495940      -0.46226827      -1.52143829        0      -0.37624306      -0.70427040       0.29818061      -2.05545904       0.20451233      -1.54407456      -2.05545904       0.20451233      -1.54407456     -13.60676655
H       -1.90597733      -1.20099959      -2.11948769        0      -0.10342166      -0.65484256      -0.30345695       0.77964561      -0.14566074       0.94070394       0.77964561      -0.14566074       0.94070394     -13.89965118
H       -1.07344415      -1.45441583      -0.31977002        0       0.12302867       0.31723313      -0.44817861       1.29695056      -1.05535230       0.16052581       1.29695056      -1.05535230       0.16052581     -13.44694421
12
Properties=species:S:1:pos:R:3:molID:I:1:momenta:R:3:force_mace:R:3:forces:R:3:energies:R:1 Nmols=1 Comp=DMC(1) energy_mace=-587.3309171560434 energy=-587.3309171560434 stress="2.1962339708290802e-05 9.317581221316507e-06 1.4558450575024565e-05 9.317581221316507e-06 1.3200919684194532e-05 -4.642015416012047e-06 1.4558450575024565e-05 -4.642015416012047e-06 -8.467594810238106e-06" free_energy=-587.3309171560434 pbc="F F F"
C        0.38569646       0.15815771      -0.19357122        0      -1.59659306       0.10226661       0.76654610       1.92922093       0.10569200       1.37277162       1.92922093       0.10569200       1.37277162     -59.04522146
O        1.34884206       0.91001599      -0.17504706        0       0.25177585       1.68728314      -1.27205591      -1.42650187      -0.70661243      -1.61222997      -1.42650187      -0.70661243      -1.61222997    -109.76791056
O       -0.23837428      -0.05676995       0.96030858        0      -0.65047385      -0.00150610      -0.60314666      -1.70998182      -0.77039977      -1.90436220      -1.70998182      -0.77039977      -1.90436220    -110.57207602
O       -0.01063039      -0.89347164      -1.00127865        0       0.98509210      -0.21656791       2.19092321      -0.99084471      -0.14990433      -1.84787684      -0.99084471      -0.14990433      -1.84787684    -110.22182918
C       -0.23298846       1.01945981       1.77716597        0       1.44973050      -2.00757107       0.47238201       2.64065908       3.26158951       1.80140201       2.64065908       3.26158951       1.80140201     -57.81510647
C       -1.28678989      -1.19572059      -1.38201324        0      -0.55005737       0.90958323      -0.64882750      -1.11918749      -2.09848315       0.74378019      -1.11918749      -2.09848315       0.74378019     -56.98389956
H        0.78815568       1.31183956       1.91432302        0      -0.30486923       0.31148914       0.32039558      -0.72152416       1.68212628       0.73978601      -0.72152416       1.68212628       0.73978601     -13.67843776
H        0.30226523       2.12454617       1.70837137        0      -0.25575761       0.46917458      -0.37769859      -1.07817462      -4.29151428      -0.54970140      -1.07817462      -4.29151428      -0.54970140     -13.51838739
H       -0.93297761       0.82511101       2.53317529        0      -0.36457760       0.20982771      -0.04682344      -0.49678553       0.43219118       0.65027097      -0.49678553       0.43219118       0.65027097     -13.89889459
H       -2.37385325      -1.10010693      -1.77485578        0       0.54468485      -0.33387937       0.18368527       2.32526114       1.30003089       1.49297588       2.32526114       1.30003089       1.49297588     -13.67600693
H       -1.91305863      -1.68504710      -2.10065138        0       0.10516177      -0.51731494      -0.23639639       1.10921931       0.25412943      -0.47803250       1.10921931       0.25412943      -0.47803250     -13.83056405
H       -0.56473423      -1.66220964      -0.72807047        0       0.38588366      -0.61278501      -0.74898368      -0.46136028       0.98115468      -0.40878377      -0.46136028       0.98115468      -0.40878377     -14.32258318
12
Properties=species:S:1:pos:R:3:molID:I:1:momenta:R:3:force_mace:R:3:forces:R:3:energies:R:1 Nmols=1 Comp=DMC(1) energy_mace=-587.1444139073922 energy=-587.1444139073922 stress="2.3263306483333107e-06 3.7629909036744533e-06 9.935810704064417e-06 3.7629909036744533e-06 -4.809019157172852e-06 -8.193058279366175e-06 9.935810704064417e-06 -8.193058279366175e-06 -1.1571708608590132e-05" free_energy=-587.1444139073922 pbc="F F F"
C        0.41067841       0.18198965      -0.12395469        0       1.94167010       0.25458038       0.10396829       0.41148586      -2.04804974      -2.39822772       0.41148586      -2.04804974      -2.39822772     -59.07968566
O        1.29034524       0.95820892      -0.32332655        0      -2.77191841       0.10792715      -3.07525181      -0.49253889      -0.06764716      -0.01953253      -0.49253889      -0.06764716      -0.01953253    -110.01735025
O       -0.30729591      -0.06704782       0.90524168        0      -1.17955537      -0.56166777      -0.17229762      -0.02370529       0.23324443       2.60873520      -0.02370529       0.23324443       2.60873520    -110.55976875
O        0.00694085      -0.91271121      -0.93000102        0       0.08148537      -0.05984114       0.51061095       0.44728637       2.53327663      -0.57048322       0.44728637       2.53327663      -0.57048322    -110.10948380
C       -0.15756865       0.95149506       1.90892240        0       0.33706722      -0.11817285       1.89304299      -2.51232523       1.85089793      -2.47180129      -2.51232523       1.85089793      -2.47180129     -57.50366264
C       -1.22608315      -1.22329727      -1.35770387        0       1.88396978      -1.15120644       0.57782920       2.28144353       0.56840547       2.45789690       2.28144353       0.56840547       2.45789690     -57.08469011
H        0.47316732       1.69955626       2.19598569        0      -0.47488717       0.12536970      -0.14485758       1.06230346      -0.02832889      -1.45936848       1.06230346      -0.02832889      -1.45936848     -13.87852514
H       -0.04938370       1.86879095       1.25170242        0      -0.01666706       0.33347160       0.00528526       0.60528559      -0.14522253       3.14973621       0.60528559      -0.14522253       3.14973621     -13.46656747
H       -1.07319166       0.99254834       2.41914918        0      -0.06063012       0.09938557       0.28632745      -0.47403648      -0.47555858       0.96554753      -0.47403648      -0.47555858       0.96554753     -13.91088286
H       -2.28732601      -1.15149574      -1.56925987        0       0.62526707      -0.00295615       0.25108280       1.14384259       0.58450779       1.26398474       1.14384259       0.58450779       1.26398474     -13.84691114
H       -1.71659931      -1.46824502      -2.12156976        0      -0.38421672       0.96506925      -0.02928887      -2.12734712      -0.49234125      -3.51410894      -2.12734712      -0.49234125      -3.51410894     -13.60569568
H       -0.30057123      -1.58328095      -1.19157575        0       0.01841530       0.00804070      -0.20645104      -0.32169440      -2.51318410      -0.01237840      -0.32169440      -2.51318410      -0.01237840     -14.08119040
12
Properties=species:S:1:pos:R:3:molID:I:1:momenta:R:3:force_mace:R:3:forces:R:3:energies:R:1 Nmols=1 Comp=DMC(1) energy_mace=-588.269229255953 energy=-588.269229255953 stress="2.5245904713431883e-06 6.711359648875285e-06 -5.031348155208643e-06 6.711359648875285e-06 8.960690454051598e-06 -7.549048712918029e-07 -5.031348155208643e-06 -7.549048712918029e-07 1.2291142043027686e-06" free_energy=-588.269229255953 pbc="F F F"
C        0.45568954       0.10396469      -0.12886422        0      -0.51181054      -1.25566325      -0.06662255      -0.65419345       2.84211503       0.07565595      -0.65419345       2.84211503       0.07565595     -59.20527548
O        1.15762889       1.02986914      -0.49706515        0      -1.95633395       1.25270371      -2.65278569      -1.08244184      -1.90819009       1.38056539      -1.08244184      -1.90819009       1.38056539    -109.83602336
O       -0.34063496      -0.03014072       0.96590518        0      -0.42261285       2.16673187       1.47967346       1.13029083       0.77728463      -0.07011231       1.13029083       0.77728463      -0.07011231    -110.44788323
O        0.07374528      -0.90947123      -0.93028581        0       2.61053498      -1.08392018      -0.05583082       1.67045875      -2.26603245      -0.96385004       1.67045875      -2.26603245      -0.96385004    -110.24281947
C       -0.25304974       0.97136435       1.97750571        0      -1.99855338       0.93838329      -0.12290718       0.67020750       1.69903149       0.12912855       0.67020750       1.69903149       0.12912855     -57.81966105
C       -1.07723041      -1.33076475      -1.38345044        0       0.59506615      -1.25409427      -1.15896728       1.19084905      -1.55527167       1.79382080       1.19084905      -1.55527167       1.79382080     -57.69570564
H        0.53887362       1.79351669       1.93200589        0       0.17197952      -0.78990972      -0.15497621      -0.46038786      -2.28056768       0.47511142      -0.46038786      -2.28056768       0.47511142     -13.72487283
H       -0.07547306       1.98590840       1.76381917        0      -0.19555024       0.34740304       0.33794493      -0.92086386       0.22750226      -0.77261473      -0.92086386       0.22750226      -0.77261473     -13.84340450
H       -0.86090909       0.72494559       2.83875462        0       0.67033784      -0.70663504       0.51101028       0.62770413      -0.19493078      -0.50522245       0.62770413      -0.19493078      -0.50522245     -14.04254824
H       -2.06663949      -1.03904531      -1.13786051        0       0.48908258       0.21771843       0.37865925      -0.49109131      -0.40765893       1.15553189      -0.49109131      -0.40765893       1.15553189     -13.80594651
H       -1.78534872      -0.77497992      -1.82982076        0       0.57383147       0.39885291       1.45854861      -0.90212054       1.22634227      -2.35195029      -0.90212054       1.22634227      -2.35195029     -13.79058147
H       -0.27801127      -2.08456261      -1.23488973        0      -0.02597157      -0.23157079       0.04625320      -0.77841141       1.84037592      -0.34606418      -0.77841141       1.84037592      -0.34606418     -13.81450747
12
Properties=species:S:1:pos:R:3:molID:I:1:momenta:R:3:force_mace:R:3:forces:R:3:energies:R:1 Nmols=1 Comp=DMC(1) energy_mace=-587.1225810311587 energy=-587.1225810311587 stress="4.690537668364732e-06 -5.450181279217036e-06 -1.225880139622992e-06 -5.450181279217036e-06 -7.78213881598784e-07 1.6033652471196817e-06 -1.225880139622992e-06 1.6033652471196817e-06 3.907498995464943e-06" free_energy=-587.1225810311587 pbc="F F F"
C        0.40850417       0.15199472      -0.15676436        0      -1.12073934       1.97399595      -0.15092981      -2.00246323      -1.97698148       1.57353845      -2.00246323      -1.97698148       1.57353845     -58.97067247
O        1.01059590       1.04322512      -0.57987788        0      -3.02432964      -0.45447155      -0.40316404       1.22157202       1.89169302      -0.20546213       1.22157202       1.89169302      -0.20546213    -110.05211424
O       -0.36597409       0.06496294       1.00621452        0      -0.76632808       1.02237407      -0.55358776      -0.68854061      -1.23553168      -3.11085466      -0.68854061      -1.23553168      -3.11085466    -110.33612549
O        0.28274909      -1.06451892      -0.94689234        0       3.94307703      -3.82558400      -0.44153869      -1.18556945      -0.30663871      -0.25721364      -1.18556945      -0.30663871      -0.25721364    -110.14712180
C       -0.37045766       1.02525821       1.98999565        0       0.08400789      -0.85414806       0.75388521       6.46342656      -0.25305563       1.17085172       6.46342656      -0.25305563       1.17085172     -57.88500811
C       -1.02501106      -1.34580391      -1.39085717        0      -0.28610852       2.17905363       0.74379883       1.40516567       1.57020530       3.49102474       1.40516567       1.57020530       3.49102474     -57.22286020
H        0.76753439       1.32226244       2.00764068        0       0.24930120       0.27831272       0.10577869      -0.57525839       0.23858808      -0.09509256      -0.57525839       0.23858808      -0.09509256     -13.11549366
H       -0.46349647       2.05924575       1.87813590        0      -0.54785957       0.51077961      -0.13595308      -2.00618703       0.29862509      -0.14170653      -2.00618703       0.29862509      -0.14170653     -13.86847344
H       -0.28354836       0.47352701       2.92115047        0       0.14751770       0.24979048      -0.03457197      -2.02910955       0.65482212       0.29064828      -2.02910955       0.65482212       0.29064828     -13.82885185
H       -1.81121711      -1.13211248      -0.71401228        0       0.40911870      -0.17195847      -0.10815592      -0.54643516      -0.63767848      -0.24774253      -0.54643516      -0.63767848      -0.24774253     -13.79656360
H       -1.71934487      -0.45516176      -1.22463240        0       0.35036610      -0.95521602       0.27476728       0.53759550      -1.05312928      -1.49028899       0.53759550      -1.05312928      -1.49028899     -13.64310928
H       -0.18524027      -1.99351012      -1.28989089        0       0.56197651       0.04707163      -0.05032874      -0.59419633       0.80908166      -0.97770214      -0.59419633       0.80908166      -0.97770214     -14.25618689
12
Properties=species:S:1:pos:R:3:molID:I:1:momenta:R:3:force_mace:R:3:forces:R:3:energies:R:1 Nmols=1 Comp=DMC(1) energy_mace=-587.0383775008938 energy=-587.0383775008938 stress="1.1256757695059842e-05 -6.525165034902469e-06 1.2740596648140633e-06 -6.525165034902469e-06 6.728476078621854e-06 -2.2734243482441623e-06 1.2740596648140633e-06 -2.2734243482441623e-06 5.6900073312271685e-06" free_energy=-587.0383775008938 pbc="F F F"
C        0.24252158       0.17259585      -0.10040424        0      -0.97493224      -0.38276779       0.22632756       4.91737637       2.26971971      -3.34282382       4.91737637       2.26971971      -3.34282382     -58.75851952
O        0.85097166       1.10200504      -0.60445730        0      -3.15362603       1.37080374      -0.15860610      -1.58817902      -2.60491504       1.24434563      -1.58817902      -2.60491504       1.24434563    -109.82320147
O       -0.46442582       0.12426665       0.92082204        0      -1.54105230       0.74106967      -0.67095755      -0.83872104      -1.71537970       2.50245246      -0.83872104      -1.71537970       2.50245246    -110.44796323
O        0.45285368      -1.28921628      -0.93890481        0       0.46166929      -2.48697642       0.59351060      -4.39891375       2.81786456       0.36617870      -4.39891375       2.81786456       0.36617870    -110.12515192
C       -0.18773056       1.09684234       2.02876407        0       1.43651130       1.40588773       0.13781214      -6.99982482      -2.20381498      -0.06091882      -6.99982482      -2.20381498      -0.06091882     -57.70596905
C       -0.84346591      -1.28976729      -1.27398963        0       2.65830434      -0.85653371       1.77483272      -0.89738001       0.06192826      -1.01031406      -0.89738001       0.06192826      -1.01031406     -57.23532651
H        0.72889869       1.45543145       1.97139041        0       0.31392424       0.34555371      -0.11649049       3.58458162       1.45037582      -0.03933749       3.58458162       1.45037582      -0.03933749     -14.07265914
H       -1.07353588       1.64377488       1.66988289        0       0.06013952      -0.81247739       0.16708069       0.85726155       1.57791811       0.64746043       0.85726155       1.57791811       0.64746043     -13.51990618
H       -0.66296285       0.70012874       3.01628381        0      -0.22777641       0.42843927      -0.52320866       1.67406473       0.08173873      -1.40871071       1.67406473       0.08173873      -1.40871071     -13.88446162
H       -1.77108320      -1.32997058      -0.74176090        0       0.31800368       0.42629198      -0.74118152       0.27122717       0.71275810      -0.92113313       0.27122717       0.71275810      -0.92113313     -13.80417955
H       -1.87701647      -0.61444682      -1.38375273        0       0.59674693      -0.65761400       0.19254329       3.32435081      -2.43268257       1.37199372       3.32435081      -2.43268257       1.37199372     -13.37894493
H       -0.06463316      -1.68099024      -1.83749856        0       0.05208767       0.47832321      -0.88166269       0.09415640      -0.01551100       0.65080709       0.09415640      -0.01551100       0.65080709     -14.28209438
12
Properties=species:S:1:pos:R:3:molID:I:1:momenta:R:3:force_mace:R:3:forces:R:3:energies:R:1 Nmols=1 Comp=DMC(1) energy_mace=-585.7285510387193 energy=-585.7285510387193 stress="-1.2293192209726897e-05 -1.1972626178059731e-05 -7.628858086499411e-06 -1.1972626178059731e-05 5.650126299157499e-06 8.20654709430336e-06 -7.628858086499411e-06 8.20654709430336e-06 2.301456059789884e-06" free_energy=-585.7285510387193 pbc="F F F"
C        0.28501358       0.17942536      -0.15688915        0       0.66683749      -0.96939927       0.30252012      -3.47138400      -3.88954396       4.69345050      -3.47138400      -3.88954396       4.69345050     -58.01012087
O        0.67057353       1.15787011      -0.57972223        0      -1.86834236       1.43167561       0.06170646       2.80491993       3.57219017      -2.70971302       2.80491993       3.57219017      -2.70971302    -110.09198870
O       -0.56409795       0.15063387       0.93046141        0      -1.35378863       0.63406947       0.18356517       2.87705495       0.32210882      -0.56333760       2.87705495       0.32210882      -0.56333760    -110.10902921
O        0.45402268      -1.36716999      -0.87827042        0       1.65419709      -0.49007993       1.94676656       5.12899927       2.97381357       3.81461815       5.12899927       2.97381357       3.81461815    -110.64175328
C       -0.11673107       1.18235659       1.96633533        0       0.04884096       0.90130934      -1.86865278      -4.79006025      -3.90962228      -0.70212472      -4.79006025      -3.90962228      -0.70212472     -57.61964451
C       -0.62326212      -1.38552759      -1.26184470        0      -0.65646275      -0.97033720      -1.00853624     -11.57627315       1.51678060      -1.30415870     -11.57627315       1.51678060      -1.30415870     -57.03243733
H        0.73228554       1.62784448       1.83242234        0      -0.13630916       0.13784658      -0.18528709       3.45600940       1.67784381      -0.45475197       3.45600940       1.67784381      -0.45475197     -14.06813688
H       -1.11843888       1.24990731       1.95032780        0      -0.04841382      -0.30230847       0.65437584      -1.19229849       0.66027005      -0.02126071      -1.19229849       0.66027005      -0.02126071     -13.28505538
H       -0.84761546       0.95300408       2.74796961        0      -0.19264616       0.39515294      -0.35956233       1.29103245       0.17014570      -0.34893859       1.29103245       0.17014570      -0.34893859     -13.87441952
H       -1.70873522      -1.54757751      -0.90759700        0       1.09833339      -0.50859775      -0.18656724       2.58101773       1.66041137      -1.17239784       2.58101773       1.66041137      -1.17239784     -13.49214280
H       -1.56867204      -0.57609392      -1.25868072        0       0.13042836       0.13957180       0.19719331       1.74354251      -3.65973475       0.60618110       1.74354251      -3.65973475       0.60618110     -13.12249372
H        0.15829810      -1.52178336      -1.81657442        0       0.65732559      -0.39890313       0.26247823       1.14743965      -1.09466311      -1.83756660       1.14743965      -1.09466311      -1.83756660     -14.38132884
12
Properties=species:S:1:pos:R:3:molID:I:1:momenta:R:3:force_mace:R:3:forces:R:3:energies:R:1 Nmols=1 Comp=DMC(1) energy_mace=-586.004681892588 energy=-586.004681892588 stress="2.5513943792829866e-05 -3.505576923425395e-06 -6.787414425972374e-06 -3.505576923425395e-06 1.7219887880741303e-05 -1.1470294618475395e-06 -6.787414425972374e-06 -1.1470294618475395e-06 9.34805135820352e-06" free_energy=-586.004681892588 pbc="F F F"
C        0.33127357       0.12939872      -0.05414513        0       1.05704709       1.42909176       0.77728168       0.60487225       2.64106434      -3.21708578       0.60487225       2.64106434      -3.21708578     -58.66300069
O        0.62911393       1.20282618      -0.62597747        0       0.61705250      -1.69535803      -0.61280905       0.17674348      -4.74927635       1.51067680       0.17674348      -4.74927635       1.51067680    -109.56776778
O       -0.55046454       0.20731211       0.92094466        0       0.94175538       0.73156440      -0.21110058      -0.11402388      -2.37505987       0.15740367      -0.11402388      -2.37505987       0.15740367    -110.60933563
O        0.58126038      -1.34433579      -0.72713735        0       0.58917209       1.81313697       2.47022506      -5.11384180       3.78413847      -0.49954175      -5.11384180       3.78413847      -0.49954175    -109.78647970
C       -0.24111479       1.18730948       1.82988665        0      -2.83425501       0.02815319      -0.83196487      -1.52306409       1.73036348       2.51834721      -1.52306409       1.73036348       2.51834721     -57.86671953
C       -0.67017584      -1.45511022      -1.43749018        0      -0.05889417      -1.69903863      -1.55189069      -4.11123224      -0.44460004       5.36156930      -4.11123224      -0.44460004       5.36156930     -56.87882487
H        0.70006049       1.61256629       1.59364009        0      -0.35036515      -0.27426450      -0.37717202       0.29871440       0.74485956       0.17421483       0.29871440       0.74485956       0.17421483     -13.88020335
H       -1.13803079       1.51780047       2.46163519        0       0.47832913       0.59692483       0.03113297       1.22070657       0.14158313      -1.86604714       1.22070657       0.14158313      -1.86604714     -13.64818548
H       -0.62616990       1.32912513       2.82222905        0       0.54183139      -0.02449314       0.31099392       0.53468620      -1.20720541      -0.20756825       0.53468620      -1.20720541      -0.20756825     -13.80881690
H       -1.77368783      -1.90800055      -0.94191103        0       0.23658972      -0.02186163      -0.40646462       3.08043523       0.11665119      -1.37495701       3.08043523       0.11665119      -1.37495701     -13.34323060
H       -1.73145258      -1.08220911      -0.87857349        0      -0.68137531      -0.56361269       0.12638687       3.00008563       0.30569109      -1.74175025       3.00008563       0.30569109      -1.74175025     -13.47724654
H        0.12902260      -1.88642107      -1.54861324        0      -0.53688767      -0.32024253       0.27538133       1.94591826      -0.68820960      -0.81526162       1.94591826      -0.68820960      -0.81526162     -14.47487082
12
Properties=species:S:1:pos:R:3:molID:I:1:momenta:R:3:force_mace:R:3:forces:R:3:energies:R:1 Nmols=1 Comp=DMC(1) energy_mace=-586.341542801019 energy=-586.341542801019 stress="1.178973211642019e-05 4.229623539355415e-06 6.190909783917631e-06 4.229623539355415e-06 7.087079131584632e-06 1.693318866480914e-05 6.190909783917631e-06 1.693318866480914e-05 8.273497234379018e-07" free_energy=-586.341542801019 pbc="F F F"
C        0.40694608       0.14125811      -0.05078627        0      -0.30096013      -2.07414760       0.40394153      -3.50614443      -2.41285013       0.12484288      -3.50614443      -2.41285013       0.12484288     -58.85320645
O        0.69359544       1.07578513      -0.65964356        0       1.83718988      -0.66300047      -0.87895281       2.17138304       2.98518108      -1.30869898       2.17138304       2.98518108      -1.30869898    -109.98173532
O       -0.54975552       0.17875396       0.90579700        0      -0.41063776      -1.14721688       0.06551330      -0.02755270       0.62369904       0.89994403      -0.02755270       0.62369904       0.89994403    -110.34452560
O        0.48779869      -1.16166013      -0.59997131        0      -3.02060292       3.14121120       1.58662974      -1.77153012      -1.58018394      -1.18371913      -1.77153012      -1.58018394      -1.18371913    -110.09458945
C       -0.38983973       1.28220240       1.80420860        0      -0.29131228       2.17754151      -0.61138931       1.73643462       1.66370521       0.03739792       1.73643462       1.66370521       0.03739792     -57.82862810
C       -0.62110708      -1.57680391      -1.43784309        0       3.10271108      -1.66967260       0.68545021      -0.20214361      -1.08184152       1.87292925      -0.20214361      -1.08184152       1.87292925     -57.00657104
H        0.49197324       1.88816137       1.55224298        0      -0.32027308       0.24606703       0.11328478       0.35766381      -0.58823810      -0.75319735       0.35766381      -0.58823810      -0.75319735     -13.77070315
H       -0.91764147       2.12587308       2.27528168        0      -0.35921216       0.22899542      -0.43043839      -1.83662926      -0.85024630      -1.58884672      -1.83662926      -0.85024630      -1.58884672     -13.72493508
H       -0.19977038       0.90641375       2.74204799        0       0.31476552      -0.80939644      -0.19299416       0.60853071      -1.41113721       1.87876604       0.60853071      -1.41113721       1.87876604     -13.73140020
H       -1.83194996      -2.25562842      -1.55591045        0      -0.55102294      -0.25499481      -0.45552712       2.71018755       3.33182561       1.26872780       2.71018755       3.33182561       1.26872780     -12.82522481
H       -1.63715528      -1.31926115      -1.21058343        0      -0.39677707       0.03487451      -0.44039859       0.15475279      -1.90434284      -1.28840764       0.15475279      -1.90434284      -1.28840764     -13.90581410
H        0.36097239      -1.98241862      -1.40981852        0       0.39613186       0.78973913       0.15488081      -0.39495241       1.22442908       0.04026190      -0.39495241       1.22442908       0.04026190     -14.27420948
12
Properties=species:S:1:pos:R:3:molID:I:1:momenta:R:3:force_mace:R:3:forces:R:3:energies:R:1 Nmols=1 Comp=DMC(1) energy_mace=-586.9377376123826 energy=-586.9377376123826 stress="-2.071909383202828e-06 6.20572088146145e-06 -5.435754282557377e-06 6.20572088146145e-06 -1.8555426507685433e-05 -1.0470268604576559e-05 -5.435754282557377e-06 -1.0470268604576559e-05 -1.4948151929081144e-05" free_energy=-586.9377376123826 pbc="F F F"
C        0.27616244       0.11208013      -0.05072263        0      -2.26986833       2.88023459      -0.44781337       0.09895690       5.51285697      -2.04957355       0.09895690       5.51285697      -2.04957355     -59.22470154
O        0.81050185       1.02766527      -0.67254128        0       1.48617189      -1.54658242       1.10809662      -0.61975755      -0.99527550       1.99607925      -0.61975755      -0.99527550       1.99607925    -109.64596139
O       -0.58593704       0.16375103       0.90665281        0      -0.01428576       0.69094951      -0.27951997       0.71538040       1.08438659       0.63235806       0.71538040       1.08438659       0.63235806    -110.23437516
O        0.29381468      -1.07644751      -0.52163039        0      -2.55355680      -1.28891313       1.04027375       2.24664428      -4.52588281      -0.31913157       2.24664428      -4.52588281      -0.31913157    -110.19250407
C       -0.37169126       1.40983629       1.79038086        0      -0.09605876       0.71093501      -0.65176328      -0.74087720      -0.79614003      -3.81382194      -0.74087720      -0.79614003      -3.81382194     -57.68403429
C       -0.45108353      -1.72244558      -1.37191901        0       3.11737945      -1.27433712       0.53026592       7.97508566       3.11359238      -1.21100330       7.97508566       3.11359238      -1.21100330     -57.24046268
H        0.54687300       1.99700443       1.39728260        0      -0.25032651       0.00388057      -0.14482605      -1.96806548      -0.41173325       0.19106545      -1.96806548      -0.41173325       0.19106545     -13.92883566
H       -1.44886575       1.67881436       1.65160028        0      -0.02931396      -0.62295068      -0.35898354       1.44446959       1.11664320       1.37830386       1.44446959       1.11664320       1.37830386     -13.90343679
H        0.01291733       0.80337632       2.51748288        0       0.13969912       0.53873447       0.18581507       0.21190819      -0.25913066       3.09546771       0.21190819      -0.25913066       3.09546771     -13.74516484
H       -1.30073060      -2.01620462      -1.46098600        0       0.37044537      -0.51897251       0.66953329      -6.10997240      -3.39711957       0.62787041      -6.10997240      -3.39711957       0.62787041     -13.49516982
H       -1.19435930      -1.40986021      -1.98525218        0       0.44656154       0.74646667      -1.28690301      -0.96251807       1.07313079      -1.24803242      -0.96251807       1.07313079      -1.24803242     -13.77720174
H        0.72150707      -1.39951152      -1.42500421        0      -0.34684726      -0.31944497      -0.36417544      -2.29125432      -1.51532810       0.72041805      -2.29125432      -1.51532810       0.72041805     -13.86588962
12
Properties=species:S:1:pos:R:3:molID:I:1:momenta:R:3:force_mace:R:3:forces:R:3:energies:R:1 Nmols=1 Comp=DMC(1) energy_mace=-587.1751403237884 energy=-587.1751403237884 stress="1.1136731950924494e-05 2.6432531517803767e-06 -2.565810505828258e-06 2.6432531517803767e-06 4.755604356078851e-06 -9.4466085054075e-06 -2.565810505828258e-06 -9.4466085054075e-06 -3.123913292683438e-06" free_energy=-587.1751403237884 pbc="F F F"
C        0.07658197       0.32192249      -0.12984906        0      -2.25199042       0.15230802      -1.21700894       4.64420815      -3.26611972      -2.59533443       4.64420815      -3.26611972      -2.59533443     -58.53963344
O        0.93588443       0.99229572      -0.59979345        0       3.09543046       0.89105904       0.64785908      -1.45828496       0.77240745       0.15323690      -1.45828496       0.77240745       0.15323690    -109.99755534
O       -0.60903192       0.27655496       0.89154294        0      -0.27242035       2.61030567       0.52819523      -0.75966269      -0.76144336       2.01484589      -0.75966269      -0.76144336       2.01484589    -110.77864860
O        0.21964241      -1.20110786      -0.41556979        0      -0.53455638      -2.19221082       1.95709117       0.85001135       0.78472385      -0.84915388       0.85001135       0.78472385      -0.84915388    -110.13588876
C       -0.38054133       1.35186921       1.71126184        0      -0.10065753      -1.41010778      -0.66552109      -2.12988577       4.27536737      -0.89314126      -2.12988577       4.27536737      -0.89314126     -57.81369230
C       -0.35844560      -1.79586827      -1.45847708        0      -0.91631194      -1.35540890      -1.88333172       3.65058824      -0.81430457       0.82333657       3.65058824      -0.81430457       0.82333657     -57.97662808
H        0.26569236       2.20810719       1.18412382        0      -0.39317067       0.33951764      -0.25463531      -1.15121793      -1.79320814       1.04701487      -1.15121793      -1.79320814       1.04701487     -13.76271682
H       -1.47074672       1.68260509       1.69736888        0      -0.13718515       0.69833095       0.21310193       1.03458627       0.87991144       0.53444903       1.03458627       0.87991144       0.53444903     -13.48046361
H       -0.14424964       1.33495284       2.75973338        0      -0.62797011       0.49729011      -0.41275533       0.66795935      -1.11800306       0.09778536       0.66795935      -1.11800306       0.09778536     -14.06818685
H       -0.83878275      -2.68406133      -0.91873622        0       1.12940416       0.11926087      -0.21393507      -0.43541292       0.99407362      -2.15795942      -0.43541292       0.99407362      -2.15795942     -13.66666098
H       -0.35164084      -1.07721937      -2.34816079        0       0.73204309      -0.04453758       0.59048319      -1.59852732      -1.23280001       0.29417333      -1.59852732      -1.23280001       0.29417333     -13.78818939
H        0.86915120      -1.96519640      -1.33629716        0       0.27738483      -0.30580721       0.71045686      -3.31436177       1.27939514       1.53074705      -3.31436177       1.27939514       1.53074705     -13.16687614
12
Properties=species:S:1:pos:R:3:molID:I:1:momenta:R:3:force_mace:R:3:forces:R:3:energies:R:1 Nmols=1 Comp=DMC(1) energy_mace=-587.3909041472258 energy=-587.3909041472258 stress="-1.927586453299623e-06 6.50357180924649e-06 -2.1197773884655977e-07 6.50357180924649e-06 1.3742855565298434e-05 -4.366611281896775e-06 -2.1197773884655977e-07 -4.366611281896775e-06 1.673320084142017e-05" free_energy=-587.3909041472258 pbc="F F F"
C        0.14429606       0.26563166      -0.28455481        0       3.03259175      -1.46562854      -1.08500199       0.01914830      -3.63157002       5.01278006       0.01914830      -3.63157002       5.01278006     -58.31059949
O        1.00700652       1.03113620      -0.52914303        0      -0.41549189       1.06464689       1.43991435      -0.66168687      -0.08101563      -1.37667544      -0.66168687      -0.08101563      -1.37667544    -110.04929768
O       -0.62473336       0.34267218       0.93752282        0      -0.08204215      -0.29965788      -0.70653290       0.21903666      -1.38665301      -3.42893057       0.21903666      -1.38665301      -3.42893057    -110.26296336
O        0.14101179      -1.27550013      -0.34059111        0      -2.81511812       0.59158196       0.36843518      -2.30971950       4.74530597      -1.89412039      -2.30971950       4.74530597      -1.89412039    -110.12246770
C       -0.50975173       1.46699808       1.69525314        0      -2.64473477       3.18937981       1.79425826       4.80739791       0.80824772       0.72596949       4.80739791       0.80824772       0.72596949     -58.18486392
C       -0.25258406      -1.86522123      -1.51711201        0       2.45756424      -0.94779715       0.34332520      -0.41934416      -1.25568381      -1.19462539      -0.41934416      -1.25568381      -1.19462539     -57.59527168
H        0.25275798       2.16254943       1.18424643        0       0.83439290      -0.05904110      -0.00986461      -0.35487982      -0.77260420       1.03792887      -0.35487982      -0.77260420       1.03792887     -13.70709277
H       -1.28369167       2.10907529       1.77520917        0      -0.02292443       0.12327931      -0.13647552      -3.44625339       1.33875317       0.15466201      -3.44625339       1.33875317       0.15466201     -13.94475688
H       -0.15014354       1.22658240       2.75185915        0       0.38646047      -0.68889714      -0.53447069      -0.30877789       0.12079666      -1.33062574      -0.30877789       0.12079666      -1.33062574     -13.93366113
H       -0.66133665      -3.10923702      -1.62180678        0      -0.11598775      -0.04327330      -1.05199592       0.58940575       3.30660366       0.32076252       0.58940575       3.30660366       0.32076252     -13.25002580
H       -0.30095451      -1.25859346      -2.55267652        0      -0.33473510      -0.63177979      -0.33290248       0.17715910      -1.23683131       2.70786084       0.17715910      -1.23683131       2.70786084     -13.80405061
H        0.35729009      -1.96533747      -0.71604258        0      -0.27997514      -0.83281307      -0.08868886       1.68851392      -1.95534919      -0.73498626       1.68851392      -1.95534919      -0.73498626     -14.22585312
12
Properties=species:S:1:pos:R:3:molID:I:1:momenta:R:3:force_mace:R:3:forces:R:3:energies:R:1 Nmols=1 Comp=DMC(1) energy_mace=-587.4212634040726 energy=-587.4212634040726 stress="-4.258037305355232e-06 -2.66259108487079e-06 -2.039917502248577e-06 -2.66259108487079e-06 2.2152852233831673e-05 5.374515760063301e-06 -2.039917502248577e-06 5.374515760063301e-06 -8.349450074637823e-07" free_energy=-587.4212634040726 pbc="F F F"
C        0.34676072       0.07679861      -0.17298871        0       2.06573247      -1.01715534       3.11008093      -1.64399613       4.83190818       1.62773457      -1.64399613       4.83190818       1.62773457     -58.89152327
O        0.97778540       1.07008121      -0.51213937        0      -0.22840488      -0.63333401      -0.57264963       0.11249835      -3.11796901      -0.55084991       0.11249835      -3.11796901      -0.55084991    -109.70039604
O       -0.61085983       0.35416518       0.81245602        0       0.08336281       0.58775878      -2.64321918      -0.14723056       1.64576998       0.53244084      -0.14723056       1.64576998       0.53244084    -109.50419525
O       -0.07060468      -1.20871854      -0.38511845        0      -3.32804296       0.39764143      -1.81194020       0.83821290      -2.00019870      -0.44327819       0.83821290      -2.00019870      -0.44327819    -110.28526823
C       -0.56698248       1.66266838       1.75156361        0      -0.30212761       0.48153918      -0.22050016       3.53285810      -6.76509394      -0.29239945       3.53285810      -6.76509394      -0.29239945     -57.71407831
C       -0.04494721      -2.00859145      -1.49122278        0       2.61736338      -1.77806378       1.91791427      -0.64584461       1.86977663       0.14698305      -0.64584461       1.86977663       0.14698305     -57.44445205
H        0.37869493       2.11334912       1.56464023        0       0.18479976       0.69029809       0.18266703       0.11247763       0.96720921      -0.60932882       0.11247763       0.96720921      -0.60932882     -14.12688926
H       -1.46358475       2.12988742       1.87297408        0       0.27030555      -0.30463073       0.03340581      -1.92059487       1.01901236      -0.25925446      -1.92059487       1.01901236      -0.25925446     -14.28682481
H       -0.29125411       0.87382464       2.53709288        0      -0.70508681       0.07482881       0.37490470      -0.84742326       1.96168938       0.13059837      -0.84742326       1.96168938       0.13059837     -13.54531657
H       -0.84658636      -2.26220575      -2.06121626        0      -0.76379584       1.15565109      -0.52327370      -1.34445231      -1.31515857      -0.32056291      -1.34445231      -1.31515857      -0.32056291     -13.84671028
H       -0.48715425      -1.62778698      -2.40376418        0      -0.05424540      -0.30964340      -0.09550093       1.23032864       0.37996291      -0.50404028       1.23032864       0.37996291      -0.50404028     -13.79359691
H        0.37556429      -2.21620303      -0.63036152        0       0.16013951       0.65510989       0.24811105       0.72316612       0.52309157       0.54195719       0.72316612       0.52309157       0.54195719     -14.28201243
12
Properties=species:S:1:pos:R:3:molID:I:1:momenta:R:3:force_mace:R:3:forces:R:3:energies:R:1 Nmols=1 Comp=DMC(1) energy_mace=-587.1145565851505 energy=-587.1145565851505 stress="-4.320603995184556e-06 -6.266797480348752e-06 1.1308132751211161e-05 -6.266797480348752e-06 9.204416189712631e-07 4.093113868582207e-06 1.1308132751211161e-05 4.093113868582207e-06 -3.6008788472348976e-06" free_energy=-587.1145565851505 pbc="F F F"
C        0.41147636       0.15737040       0.06615517        0      -0.03644470       1.86143327       1.91086165      -1.68352022      -1.22814266      -3.42663434      -1.68352022      -1.22814266      -3.42663434     -58.26135146
O        1.01330299       0.96144981      -0.52428223        0       1.88366013      -2.03286841       0.30189208       3.32734679       0.70240117      -0.92751370       3.32734679       0.70240117      -0.92751370    -109.83726189
O       -0.59255858       0.44289718       0.75156504        0      -0.28728114       1.76677019       1.11554787      -2.32360824       0.24245910       4.92014326      -2.32360824       0.24245910       4.92014326    -110.39747324
O       -0.21183729      -1.18979363      -0.47404718        0      -0.75974152       0.30214464      -1.32616240       2.46484421       0.22497246       1.36135709       2.46484421       0.22497246       1.36135709    -110.27566643
C       -0.53930232       1.53232677       1.69810101        0      -1.62732433      -2.55751665      -0.54792286      -5.54267520       0.36388551       0.22625953      -5.54267520       0.36388551       0.22625953     -57.88533482
C       -0.00117388      -2.01925572      -1.45130735        0      -0.49377973       1.25298504      -0.04596770      -0.43217273       1.50399987       1.07624309      -0.43217273       1.50399987       1.07624309     -57.55098493
H        0.08170230       2.32662606       1.52694561        0      -0.21366887       0.15443508      -0.12117871       2.42541485       0.81216191      -0.31864974       2.42541485       0.81216191      -0.31864974     -14.03109635
H       -1.55897457       2.05951624       1.49218591        0       0.29846343      -0.36643027      -0.91226702       0.87727626      -0.50393722      -0.35058338       0.87727626      -0.50393722      -0.35058338     -13.50502344
H       -0.85998496       1.38204750       2.76673423        0       0.03908426       0.57804365      -0.03066558       1.64059702      -0.93919923      -0.80465149       1.64059702      -0.93919923      -0.80465149     -13.89798539
H       -0.84941617      -1.91599872      -2.14977890        0       1.28272613      -0.43809147       0.17194377       1.29441922      -1.46834431      -0.18344602       1.29441922      -1.46834431      -0.18344602     -13.53755700
H        0.00323934      -2.06054565      -2.46690513        0       0.14620355      -0.39356650      -0.20351408      -0.41065541       0.36511095      -0.71042774      -0.41065541       0.36511095      -0.71042774     -13.85321200
H        0.60761020      -1.98151260      -0.57333966        0      -0.23189722      -0.12733858      -0.31256702      -1.63726656      -0.07536755      -0.86209654      -1.63726656      -0.07536755      -0.86209654     -14.08160965
12
Properties=species:S:1:pos:R:3:molID:I:1:momenta:R:3:force_mace:R:3:forces:R:3:energies:R:1 Nmols=1 Comp=DMC(1) energy_mace=-587.16408205308 energy=-587.16408205308 stress="9.554309865682037e-06 3.245714206229988e-06 9.523123239122912e-06 3.245714206229988e-06 -8.419551613119313e-07 -3.119156439562908e-06 9.523123239122912e-06 -3.119156439562908e-06 8.870356602909306e-06" free_energy=-587.16408205308 pbc="F F F"
C        0.32484910       0.25536869       0.05047533        0      -1.01470113       0.44307229      -2.39302974       0.96303306      -1.27789454      -4.03763598       0.96303306      -1.27789454      -4.03763598     -58.60724256
O        1.20679146       0.85840300      -0.48898618        0       3.06168778      -1.57887789       1.45033275      -1.15295604      -0.62903818       1.60895681      -1.15295604      -0.62903818       1.60895681    -109.97877339
O       -0.64440646       0.48678689       0.88574860        0      -1.15241661      -0.70693129       2.05365504      -1.72941856      -3.55131609      -1.72651927      -1.72941856      -3.55131609      -1.72651927    -110.58054641
O       -0.21423847      -1.12764344      -0.51435979        0       0.06498643       1.96884080       0.05821066       0.09864518       1.05146146       1.09357013       0.09864518       1.05146146       1.09357013    -110.26254232
C       -0.73676591       1.48528100       1.63676784        0      -1.21171923       1.82640768      -0.71892975       2.61639791       3.89332513       1.00254311       2.61639791       3.89332513       1.00254311     -57.89556491
C        0.00425658      -1.96731438      -1.47887704        0       0.33704309      -0.98274750      -1.30573923       0.03247080      -1.63364744       1.31645411       0.03247080      -1.63364744       1.31645411     -57.42182597
H        0.17794314       2.09943722       1.35871761        0      -0.15246160      -0.38444235      -0.12012349      -0.33585455       1.03458162       0.56086553      -0.33585455       1.03458162       0.56086553     -13.32881237
H       -1.44880276       1.57654333       0.81703229        0      -0.09559802      -0.68260223      -0.24190882       0.68729598      -1.08319634       1.87346574       0.68729598      -1.08319634       1.87346574     -13.66507557
H       -0.56489288       1.32635326       2.74018351        0      -0.17801721      -0.40010877      -0.02559713      -1.57144020       0.00512010      -0.71994845      -1.57144020       0.00512010      -0.71994845     -13.85017313
H       -0.53628313      -2.45757084      -2.39616201        0       0.51713700       0.04513692       0.62101321       2.29070837       2.11023068       2.41539089       2.29070837       2.11023068       2.41539089     -13.59137614
H        0.40150329      -2.05562307      -2.38845890        0       0.12775028       0.43234882       0.37020260      -0.84315349      -0.25919330      -1.90280503      -0.84315349      -0.25919330      -1.90280503     -13.78555058
H        0.33301687      -2.00649303      -0.40309523        0      -0.30369079       0.01990351       0.25191390      -1.05572844       0.33956689      -1.48433759      -1.05572844       0.33956689      -1.48433759     -14.19659868
12
Properties=species:S:1:pos:R:3:molID:I:1:momenta:R:3:force_mace:R:3:forces:R:3:energies:R:1 Nmols=1 Comp=DMC(1) energy_mace=-587.5737318634767 energy=-587.5737318634767 stress="1.0399316715469743e-05 5.933819666032086e-06 -5.85342274081523e-06 5.933819666032086e-06 1.9241723870082532e-05 7.864266868839401e-06 -5.85342274081523e-06 7.864266868839401e-06 1.3674955330368192e-05" free_energy=-587.5737318634767 pbc="F F F"
C        0.26880439       0.22745939      -0.18692932        0      -0.38659611      -1.33708539      -3.12419565       0.39173619      -1.11043895       2.25335694       0.39173619      -1.11043895       2.25335694     -58.73154828
O        1.33734500       0.71100657      -0.39551457        0       1.26614937      -2.53132030       1.56997191      -1.87646098       0.11240937       0.01965793      -1.87646098       0.11240937       0.01965793    -109.93934659
O       -0.73595985       0.37820541       0.94865707        0      -1.02038269      -1.66584793      -0.28936898       3.06621642       3.14611119      -1.50686812       3.06621642       3.14611119      -1.50686812    -110.07450931
O       -0.21253076      -0.99969421      -0.49625216        0      -0.26438623       1.63229313       0.11959639      -1.02384407      -1.85176203      -1.28686146      -1.02384407      -1.85176203      -1.28686146    -110.19559078
C       -0.75067474       1.65688997       1.62270574        0       0.65218188       0.76080765       0.41362699      -1.15005380      -4.43286793       1.11553318      -1.15005380      -4.43286793       1.11553318     -57.67002524
C        0.08810274      -1.93750418      -1.47619547        0       1.59794800       1.24227790      -0.33836479      -0.97780045      -0.69216413       0.27286743      -0.97780045      -0.69216413       0.27286743     -57.17205135
H        0.01366956       2.43402836       1.51487191        0      -0.51441158       0.45046093       0.20378939      -0.71886151      -0.73859860      -0.29662183      -0.71886151      -0.73859860      -0.29662183     -14.12349961
H       -1.41521678       1.03666019       1.07814815        0      -0.39742906       0.31888059       0.36127137      -0.23708692       1.19854091      -0.94705877      -0.23708692       1.19854091      -0.94705877     -14.33233449
H       -1.18163417       1.31231482       2.63613748        0      -0.65035444       0.58881188       0.30521086       1.03912729       1.62908181      -0.51011703       1.03912729       1.62908181      -0.51011703     -13.48041124
H       -0.11626183      -2.48322009      -2.54187040        0       0.39815614       0.41527101       0.10067015      -0.41522322       1.04325549       2.56997915      -0.41522322       1.04325549       2.56997915     -13.51296973
H        0.37782022      -1.87559413      -2.41846225        0      -0.14105823       0.06230116       0.19874917       1.52446666       0.99722034      -1.59611537       1.52446666       0.99722034      -1.59611537     -13.88005297
H       -0.14732132      -1.98318953      -0.46340567        0      -0.53981706       0.06314937       0.47904320       0.37778439       0.69921255      -0.08775206       0.37778439       0.69921255      -0.08775206     -14.46139228
12
Properties=species:S:1:pos:R:3:molID:I:1:momenta:R:3:force_mace:R:3:forces:R:3:energies:R:1 Nmols=1 Comp=DMC(1) energy_mace=-586.8221056571775 energy=-586.8221056571775 stress="-1.3562601183978535e-05 -8.88579915663316e-06 -5.96062949797973e-07 -8.88579915663316e-06 -3.077685944082694e-07 1.5223472002867708e-06 -5.96062949797973e-07 1.5223472002867708e-06 1.0849066285373007e-05" free_energy=-586.8221056571775 pbc="F F F"
C        0.29162533       0.12734984      -0.31208009        0      -0.06606776      -0.15098765       0.88392002      -3.96300226       1.08584282       5.27380459      -3.96300226       1.08584282       5.27380459     -58.12503688
O        1.33294462       0.56556719      -0.33682825        0      -0.36006140      -1.15269298       0.56075005       4.52329598       2.41578131      -1.26594259       4.52329598       2.41578131      -1.26594259    -110.09951776
O       -0.74059425       0.44976249       0.92481016        0       0.64798312       3.70798443      -0.18314733       0.95329867       1.92936580      -0.54627409       0.95329867       1.92936580      -0.54627409    -110.12430256
O       -0.25499107      -0.99394940      -0.55104557        0      -1.63163425      -0.92600497      -1.19256974      -3.33082805      -1.07625679       1.42544338      -3.33082805      -1.07625679       1.42544338    -110.47483454
C       -0.76539319       1.56692932       1.72662704        0      -0.25538068      -2.03580507       0.66474781       0.10002746       1.65167064      -3.10746871       0.10002746       1.65167064      -3.10746871     -57.25531364
C        0.14554909      -1.80986094      -1.40505254        0       0.56467272       1.44618667       0.23964800       2.33033197      -1.87701173      -7.57194308       2.33033197      -1.87701173      -7.57194308     -57.21119867
H       -0.27880275       2.55406921       1.43839371        0       0.22504958      -0.27492473      -0.34366274       1.03729705      -1.06147244      -0.28037411       1.03729705      -1.06147244      -0.28037411     -13.66305057
H       -1.28527438       1.37656665       0.91872626        0       0.39218393      -0.10833624      -0.68069496      -0.29992817      -1.06207793       0.61233694      -0.29992817      -1.06207793       0.61233694     -14.35441217
H       -1.22507667       1.91401080       2.62573301        0       0.22727222      -0.23845172      -0.10830112      -0.54275603      -1.89982530       0.65520317      -0.54275603      -1.89982530       0.65520317     -13.96424273
H        0.02232512      -2.25183225      -2.42840936        0       0.31526526       0.15381748      -0.16981256       1.18692874       2.11441422       1.69101887       1.18692874       2.11441422       1.69101887     -13.65638714
H        0.66057130      -1.47377356      -2.38029319        0      -0.04277835      -0.00675833       0.71541854      -1.57324168      -2.24599403       1.59194549      -1.57324168      -2.24599403       1.59194549     -13.49804372
H       -0.34062539      -1.92835030      -0.58081628        0      -0.01650440      -0.41402688      -0.38629596      -0.42142369       0.02556343       1.52225013      -0.42142369       0.02556343       1.52225013     -14.39576526
12
Properties=species:S:1:pos:R:3:molID:I:1:momenta:R:3:force_mace:R:3:forces:R:3:energies:R:1 Nmols=1 Comp=DMC(1) energy_mace=-587.0603801315601 energy=-587.0603801315601 stress="3.6987516349540914e-05 1.0887346162608827e-05 -1.2917950667501079e-05 1.0887346162608827e-05 -1.723860435844626e-06 -6.4088581569690785e-06 -1.2917950667501079e-05 -6.4088581569690785e-06 8.885244738290246e-06" free_energy=-587.0603801315601 pbc="F F F"
C        0.21650512       0.15442311      -0.10490755        0      -0.33229758       0.27229809       3.41024388       3.29694401      -0.42905404      -0.58836391       3.29694401      -0.42905404      -0.58836391     -58.90713239
O        1.38137869       0.55548773      -0.29833295        0       0.14323470      -0.00944065       0.29079984      -4.60994404      -1.51415684       0.31489283      -4.60994404      -1.51415684       0.31489283    -109.72547193
O       -0.68524735       0.62103291       0.86292984        0       0.67279132       0.54880539      -2.38593494      -1.40278174      -4.18119718      -3.78124993      -1.40278174      -4.18119718      -3.78124993    -110.37215075
O       -0.42286888      -1.06606321      -0.56487329        0      -2.96083764      -0.38026956       0.19665866       1.77934269       4.26822163      -0.32707578       1.77934269       4.26822163      -0.32707578    -110.42976298
C       -0.77193502       1.51712669       1.63752363        0      -0.33950508       0.60120942      -1.08812141      -1.01529093       1.17874404       3.01704291      -1.01529093       1.17874404       3.01704291     -57.96453413
C        0.21502656      -1.81191832      -1.48013453        0       1.35236111      -0.62168468      -1.64249915       1.56601357       1.05753515       0.26071469       1.56601357       1.05753515       0.26071469     -57.47926420
H        0.17696062       2.02732317       1.56903705        0       0.53014470      -0.40348854       0.90417237      -0.59205138       0.82502020       0.76756982      -0.59205138       0.82502020       0.76756982     -13.57319935
H       -1.52374436       1.36194484       0.90169262        0      -0.36967728       0.17758304       0.47193700       1.88697940       0.20327678      -0.10567610       1.88697940       0.20327678      -0.10567610     -14.01495804
H       -1.26568704       1.06822283       2.57655223        0       0.27071864      -0.81884162      -0.56044645       1.16389755       1.49839650      -0.37505680       1.16389755       1.49839650      -0.37505680     -13.39951100
H        0.46321704      -1.88970191      -2.50118796        0       0.31340245       0.44466012      -0.03683375       0.54089423       0.50948706       0.74480763       0.54089423       0.50948706       0.74480763     -13.94220447
H        1.29295940      -1.53581164      -2.22253931        0       0.54180509      -0.01051572       0.35136974      -3.58988153      -0.98373434       1.72093106      -3.58988153      -0.98373434       1.72093106     -13.03041747
H       -0.37744736      -1.93826240      -0.51490933        0       0.17785956       0.19968471       0.08865419       0.97587818      -2.43253898      -1.64853643       0.97587818      -2.43253898      -1.64853643     -14.22177341
12
Properties=species:S:1:pos:R:3:molID:I:1:momenta:R:3:force_mace:R:3:forces:R:3:energies:R:1 Nmols=1 Comp=DMC(1) energy_mace=-586.2156833635263 energy=-586.2156833635263 stress="-5.4985037271997156e-06 -5.996722226677538e-06 1.129938190722872e-05 -5.996722226677538e-06 1.3287349220051565e-05 9.174805714634136e-06 1.129938190722872e-05 9.174805714634136e-06 1.6924355985671584e-05" free_energy=-586.2156833635263 pbc="F F F"
C        0.28924559       0.13799756       0.04836651        0       0.53963522      -1.54159634       0.59191987      -6.38925043      -3.71571790      -1.31198392      -6.38925043      -3.71571790      -1.31198392     -58.68031769
O        1.29181135       0.52540176      -0.25831966        0      -1.28334176      -0.44038415       0.15781952       5.78954878       1.55810551      -1.16418703       5.78954878       1.55810551      -1.16418703    -110.11425491
O       -0.75422948       0.58865827       0.62565005        0      -2.26313718      -0.33816182      -3.65512836      -1.35732845       2.67356085       3.27791947      -1.35732845       2.67356085       3.27791947    -110.34649117
O       -0.52020659      -1.03514122      -0.60136270        0       0.46486903       0.66241792      -1.46390786       4.90882364      -1.79139132      -1.70651194       4.90882364      -1.79139132      -1.70651194    -109.62719728
C       -0.71124485       1.55718737       1.72685434        0       1.31538669      -0.31230687       2.15458554      -3.46802365      -2.31656728       0.08087681      -3.46802365      -2.31656728       0.08087681     -57.49304187
C        0.35659583      -1.82962891      -1.53027327        0       0.68232785       0.28177249       1.00294289       0.20897674       2.51556107       3.82285398       0.20897674       2.51556107       3.82285398     -57.39921574
H        0.01496974       1.98487521       2.34938367        0      -0.36392568       0.21296235       0.19736922       1.99899894       0.90953641      -1.20362285       1.99899894       0.90953641      -1.20362285     -13.91153276
H       -1.40980657       1.90812570       0.91501064        0       0.50463185       0.78502670      -0.04937087       1.61488105      -0.90787378       1.51431420       1.61488105      -0.90787378       1.51431420     -13.48700870
H       -1.09009306       1.01036134       2.71847708        0      -0.19290532       0.29424743       0.49968241      -0.48768202       0.46770772      -2.00276348      -0.48768202       0.46770772      -2.00276348     -13.56892279
H        0.79424660      -1.48910962      -2.36749385        0       0.14327099       0.37195325       0.81687938       1.10517707       0.34550158      -0.10355393       1.10517707       0.34550158      -0.10355393     -13.91897489
H        1.46039487      -1.54866041      -1.50327137        0       0.67479568       0.16441450       0.18272143      -2.59320481      -0.57292547      -1.61470444      -2.59320481      -0.57292547      -1.61470444     -13.66965995
H       -0.18326339      -2.28625659      -0.85394649        0      -0.22160737      -0.14034547      -0.43551317      -1.33091684       0.83450260       0.41136312      -1.33091684       0.83450260       0.41136312     -13.99906562
12
Properties=species:S:1:pos:R:3:molID:I:1:momenta:R:3:force_mace:R:3:forces:R:3:energies:R:1 Nmols=1 Comp=DMC(1) energy_mace=-586.9931468945871 energy=-586.9931468945871 stress="2.3350361275934287e-05 2.1799149477298987e-05 4.789283390559504e-07 2.1799149477298987e-05 1.542240000320906e-05 -5.05636807868547e-06 4.789283390559504e-07 -5.05636807868547e-06 1.0240075786929304e-05" free_energy=-586.9931468945871 pbc="F F F"
C        0.17732787      -0.02990094       0.03457334        0      -1.89305648      -1.05414731      -1.43572092       2.79516433       4.72211391      -1.83582708       2.79516433       4.72211391      -1.83582708     -58.93670503
O        1.29912520       0.51992501      -0.23567972        0      -0.78889728      -1.19551395       1.32724668      -4.02916723      -3.13726651       1.52972939      -4.02916723      -3.13726651       1.52972939    -109.56714194
O       -0.85595353       0.61299912       0.56106501        0      -0.65566852       0.61489869       0.45726797       1.26186799      -0.14401015       2.85528485       1.26186799      -0.14401015       2.85528485    -110.08958830
O       -0.41032719      -1.05533817      -0.71255208        0       2.30385886      -0.67366721      -0.52576822      -2.05391189       0.72914336       2.49448101      -2.05391189       0.72914336       2.49448101    -110.57051974
C       -0.67531093       1.52315240       1.83219222        0       1.02878152       0.30904618      -0.05476493       1.23826183       3.02068568      -4.79721157       1.23826183       3.02068568      -4.79721157     -57.67623199
C        0.38980277      -1.74067374      -1.36829834        0      -0.08891435       1.89274583       1.28606991       1.46384340       0.09479780      -4.05374905       1.46384340       0.09479780      -4.05374905     -57.49256155
H        0.41588833       1.93063562       2.02815673        0       0.28233404      -1.03233317      -0.68010731      -1.67141494      -2.62600519       0.51511919      -1.67141494      -2.62600519       0.51511919     -13.74262638
H       -0.80226921       2.51814849       1.23749029        0       0.16333440       0.81150991       0.28655508      -0.85378765      -0.86576342       0.81494845      -0.85378765      -0.86576342       0.81494845     -13.52584138
H       -1.58052112       1.36561561       2.38659785        0      -0.68928754       0.10019964      -0.41147771       0.64686073      -0.45063809       0.73853530       0.64686073      -0.45063809       0.73853530     -14.16455097
H        1.19349664      -1.12460953      -2.10061977        0      -0.01485412      -0.01800205       0.39829410      -1.01879634      -2.35923756       1.68984475      -1.01879634      -2.35923756       1.68984475     -13.26558590
H        1.38442487      -1.89624913      -1.59082036        0       0.21969262      -0.65595921      -0.11180029       0.43644232       0.49670611      -0.19016967       0.43644232       0.49670611      -0.19016967     -13.84058329
H       -0.69958887      -1.97200620      -1.22909787        0       0.13267684       0.90122264      -0.53579437       1.78463746       0.51947406       0.23901443       1.78463746       0.51947406       0.23901443     -14.12121041
12
Properties=species:S:1:pos:R:3:molID:I:1:momenta:R:3:force_mace:R:3:forces:R:3:energies:R:1 Nmols=1 Comp=DMC(1) energy_mace=-587.5595449080978 energy=-587.5595449080978 stress="-5.9006934034631525e-06 -1.4881801664317996e-05 -2.112071410068842e-07 -1.4881801664317996e-05 1.2174170326997264e-06 -2.0764367272180153e-06 -2.112071410068842e-07 -2.0764367272180153e-06 -6.899352684308995e-06" free_energy=-587.5595449080978 pbc="F F F"
C        0.12003182       0.05819686      -0.10261763        0      -1.10430364       1.89495094      -0.85538727      -3.91062335       1.20123619       2.72692124      -3.91062335       1.20123619       2.72692124     -59.01350833
O        1.21583439       0.38289152      -0.17435839        0      -0.99624830      -1.94729115       0.47452780       4.01493624       1.75263683      -0.12400720       4.01493624       1.75263683      -0.12400720    -110.09344993
O       -0.88950965       0.64878457       0.64083392        0      -0.65588601       0.69594378       0.71213175       0.05910612       0.32795426      -2.52478435       0.05910612       0.32795426      -2.52478435    -110.19139453
O       -0.36811866      -1.06456308      -0.64549423        0      -0.41712962       0.39322442       1.97668193      -1.63810465      -0.73732436      -0.28166019      -1.63810465      -0.73732436      -0.28166019    -110.62571930
C       -0.63172169       1.58877887       1.70364193        0       0.73656379      -0.03902418      -1.84651434       2.65205257      -6.56168654       0.06844109       2.65205257      -6.56168654       0.06844109     -57.83062094
C        0.47368362      -1.65164606      -1.41708659        0       1.63043410       0.59709066      -1.95161460       2.50281499      -0.25684702      -2.91410006       2.50281499      -0.25684702      -2.91410006     -57.46162018
H        0.13239841       0.81108090       2.09267692        0      -0.96882894      -0.17194059       0.83199074      -0.45797172       2.84450424       0.43675617      -0.45797172       2.84450424       0.43675617     -13.38214050
H       -0.59659137       2.59283390       1.74172912        0       0.69378681      -0.18622832       0.21547407       1.43066969       2.83071520      -1.40391805       1.43066969       2.83071520      -1.40391805     -14.02356548
H       -1.49193490       1.46419549       2.21364033        0       0.11433222      -0.17529811       0.44501043      -2.81028345      -0.58326014       2.11166848      -2.81028345      -0.58326014       2.11166848     -13.56072759
H        1.59781829      -1.44129474      -1.65621413        0       0.91444547      -0.38235500       0.14391039      -2.81988399      -2.07763610       0.97225955      -2.81988399      -2.07763610       0.97225955     -13.47194310
H        1.22563253      -2.42165736      -1.47315153        0      -0.13914008      -0.74308026       0.34999303      -0.27706619       2.07265793       0.11703384      -0.27706619       2.07265793       0.11703384     -13.74764503
H       -0.57143663      -1.28245341      -1.65869683        0       0.19197422       0.06400781      -0.49620393       1.25435374      -0.81295049       0.81538948       1.25435374      -0.81295049       0.81538948     -14.15720998
12
Properties=species:S:1:pos:R:3:molID:I:1:momenta:R:3:force_mace:R:3:forces:R:3:energies:R:1 Nmols=1 Comp=DMC(1) energy_mace=-587.0438726837149 energy=-587.0438726837149 stress="-5.219227698451484e-07 -7.675388857506794e-06 3.8124057334088963e-06 -7.675388857506794e-06 -8.332584828055227e-07 -2.5752573937667923e-06 3.8124057334088963e-06 -2.5752573937667923e-06 -3.470285166551246e-06" free_energy=-587.0438726837149 pbc="F F F"
C       -0.00238893       0.19025761      -0.09354374        0      -0.25618345       0.74908025       0.32196313       5.31264281      -3.76157749      -0.88333467       5.31264281      -3.76157749      -0.88333467     -59.07940369
O        1.23278948       0.32255805      -0.16138637        0      -0.13069445       0.22864160       0.25291413      -2.88022300       1.81534199       0.54554747      -2.88022300       1.81534199       0.54554747    -109.68421490
O       -0.91115063       0.71233470       0.61993560        0      -0.17115348       0.96268219      -0.86108242      -1.95943010       0.17805247       0.07230987      -1.95943010       0.17805247       0.07230987    -110.66566624
O       -0.42071582      -1.06044503      -0.56998184        0      -0.99852933      -0.46677265      -0.49732166       1.08434330      -0.01466542      -3.31407497       1.08434330      -0.01466542      -3.31407497    -109.87368629
C       -0.58413260       1.52484648       1.68890638        0       1.28301804      -0.47924831       0.86496919       4.96855978      -0.30439608      -3.83092453       4.96855978      -0.30439608      -3.83092453     -57.61972747
C        0.60362556      -1.65479908      -1.57750413        0       0.81965026      -0.16992723      -0.79819725      -0.54572493      -2.70009170       4.50407677      -0.54572493      -2.70009170       4.50407677     -57.26910792
H       -0.51079182       1.20281579       2.69943743        0      -0.73545076       0.48386719       0.08584884       0.36628585      -1.10546448       0.18760239       0.36628585      -1.10546448       0.18760239     -13.95553539
H        0.09493148       2.27143113       1.43578924        0       0.51050940      -0.86523815      -0.62399446       0.98739622       1.30409805      -0.82160116       0.98739622       1.30409805      -0.82160116     -13.92279042
H       -1.19068501       1.59244709       2.36345518        0       0.28096601       0.40837650       0.60710389      -5.75185747       1.18040663       5.11055225      -5.75185747       1.18040663       5.11055225     -13.60532380
H        1.42876282      -2.24693580      -1.11002463        0      -0.04132988      -0.62128045       0.66394026      -0.17077678       1.89368210      -0.82574476      -0.17077678       1.89368210      -0.82574476     -13.81792495
H        0.95302904      -2.68062732      -1.25618663        0      -0.52478194      -0.56891859       0.13944464      -0.97892363       0.70076771      -1.04527500      -0.97892363       0.70076771      -1.04527500     -13.77592673
H       -0.22907556      -1.29935304      -1.93606218        0      -0.03602041       0.33873765      -0.15558828      -0.43229205       0.81384622       0.30086635      -0.43229205       0.81384622       0.30086635     -13.77456490
12
Properties=species:S:1:pos:R:3:molID:I:1:momenta:R:3:force_mace:R:3:forces:R:3:energies:R:1 Nmols=1 Comp=DMC(1) energy_mace=-588.0318216147657 energy=-588.0318216147657 stress="-1.4893246109444397e-07 -2.5179875406732463e-06 -9.205882818719875e-06 -2.5179875406732463e-06 -9.889910623600693e-06 6.3240712871754805e-06 -9.205882818719875e-06 6.3240712871754805e-06 8.442857848379151e-06" free_energy=-588.0318216147657 pbc="F F F"
C        0.06277327       0.06933382      -0.06049419        0       0.14022575      -2.92508673       0.86856723      -3.69914113       0.94481861       1.17909190      -3.69914113       0.94481861       1.17909190     -59.11949170
O        1.19246923       0.36765565      -0.13303285        0      -0.51354294       0.99590544       0.14840606       1.55183477       0.75364465       0.42719866       1.55183477       0.75364465       0.42719866    -110.11804798
O       -0.97755421       0.77532020       0.56791163        0      -0.85445376       0.68779179      -1.13470291       2.27773597      -0.79431524       0.77509321       2.27773597      -0.79431524       0.77509321    -110.04071437
O       -0.45263686      -1.03870399      -0.66956837        0       0.12623480       0.96557683      -2.44785530       2.30398510      -0.85658209      -2.66637535       2.30398510      -0.85658209      -2.66637535    -110.29270296
C       -0.42713354       1.54683599       1.74472746        0       2.35956119       0.74145324       0.03746553       0.70470084      -2.11760532      -4.23676257       0.70470084      -2.11760532      -4.23676257     -57.83062597
C        0.56630293      -1.75959588      -1.46753445        0      -2.36965028      -0.21057929       2.37345320      -4.57284692       6.47378385       0.89142468      -4.57284692       6.47378385       0.89142468     -57.44882991
H       -0.87160786       1.26791501       2.65495328        0      -0.35492561       0.13208775       0.01946433       0.46964821      -0.06666667       0.22017090       0.46964821      -0.06666667       0.22017090     -14.00728767
H        0.48529627       1.87900016       1.30956445        0      -0.09459362      -0.24577117       0.91324478       0.60018562       0.42806479       1.12098703       0.60018562       0.42806479       1.12098703     -13.92576795
H       -1.07962004       2.05807394       2.28802354        0       0.60250404      -0.06334796      -0.99172649      -1.77245176       1.15884658       1.09776669      -1.77245176       1.15884658       1.09776669     -13.98116268
H        1.26901179      -2.18978542      -0.99729215        0       0.47024819      -0.30602903       0.24315927       1.94295115      -2.24161422       0.83525165       1.94295115      -2.24161422       0.83525165     -13.78643625
H        0.49433707      -2.69933671      -1.47265176        0      -0.05237848      -0.22456749      -0.29793283       0.83054881      -3.74157412       0.30000770       0.83054881      -3.74157412       0.30000770     -13.76683012
H        0.10921233      -0.96945764      -1.88847540        0       0.54077072       0.45256663       0.26845713      -0.63715067       0.05919917       0.05614550      -0.63715067       0.05919917       0.05614550     -13.71392406
12
Properties=species:S:1:pos:R:3:molID:I:1:momenta:R:3:force_mace:R:3:forces:R:3:energies:R:1 Nmols=1 Comp=DMC(1) energy_mace=-587.445866216709 energy=-587.445866216709 stress="2.7079265146407395e-06 1.4195934879844956e-05 6.458883986813803e-06 1.4195934879844956e-05 -1.9104116019572552e-05 -1.7299149116922704e-07 6.458883986813803e-06 -1.7299149116922704e-07 1.5046807266987862e-06" free_energy=-587.445866216709 pbc="F F F"
C       -0.00209936      -0.04639004       0.03602330        0      -1.00625301       1.00228262       1.09832914       0.02833624       4.12198012      -1.24995813       0.02833624       4.12198012      -1.24995813     -58.83248428
O        1.11315955       0.39969306      -0.09886812        0      -2.17026122      -0.04557955       0.99957821       0.31667331      -1.20071033       0.94474131       0.31667331      -1.20071033       0.94474131    -109.82766373
O       -0.92306735       0.79688598       0.56040822        0       2.47429089      -0.06609687       0.69205652       2.19356384      -0.75606210       2.35213902       2.19356384      -0.75606210       2.35213902    -110.21735721
O       -0.42996827      -1.00979785      -0.86880678        0      -0.27086065       0.57407682      -3.39101746      -3.42941501       1.57722944       1.39195272      -3.42941501       1.57722944       1.39195272    -110.78191022
C       -0.25901732       1.56171922       1.66693955        0       1.72590896       0.14780064      -1.28378012       0.82835514      -0.41766216       0.38456577       0.82835514      -0.41766216       0.38456577     -57.79750172
C        0.42133856      -1.77678014      -1.26354735        0      -0.69611033       0.03018589       1.53685208       2.08208228      -0.18004387      -1.83021019       2.08208228      -0.18004387      -1.83021019     -57.16393990
H       -0.97420586       1.75291019       2.47656021        0      -0.06133110       0.32638731       0.01581673       0.63834001      -1.03377957      -0.25858545       0.63834001      -1.03377957      -0.25858545     -13.90261155
H        0.93188805       1.64650299       1.94795467        0      -0.58961602      -0.69422711       0.20468969      -3.50474246      -0.89977852      -1.72835589      -3.50474246      -0.89977852      -1.72835589     -13.68607515
H       -0.90864120       2.32799408       1.86318148        0       0.68532661       0.12828618      -0.42135476      -0.18545592       1.73391495      -0.17666917      -0.18545592       1.73391495      -0.17666917     -13.89462847
H        1.08076543      -2.47516391      -1.01671862        0      -0.08025241      -0.72362685       0.40460716       2.59222946      -1.58369464       1.81556540       2.59222946      -1.58369464       1.81556540     -13.74754434
H        0.65137260      -2.73050553      -1.49431850        0       0.15812902      -0.28447833       0.15384835      -0.63315273      -2.96970782      -1.07672984      -0.63315273      -2.96970782      -1.07672984     -13.73931379
H        0.27983055      -1.01873558      -1.80196742        0      -0.16897073      -0.39501074      -0.00962555      -0.92681415       1.60831449      -0.56845556      -0.92681415       1.60831449      -0.56845556     -13.85483588
12
Properties=species:S:1:pos:R:3:molID:I:1:momenta:R:3:force_mace:R:3:forces:R:3:energies:R:1 Nmols=1 Comp=DMC(1) energy_mace=-587.1515398086713 energy=-587.1515398086713 stress="-1.0443506549696479e-05 -5.3368717297537585e-06 5.956828400442753e-06 -5.3368717297537585e-06 2.739436944613965e-06 -5.320994847058539e-06 5.956828400442753e-06 -5.320994847058539e-06 -1.0889365411516136e-05" free_energy=-587.1515398086713 pbc="F F F"
C       -0.03205368       0.05388355       0.01397910        0      -0.50395977       0.31780543      -1.50894620      -1.03236460      -1.10341541      -3.44501766      -1.03236460      -1.10341541      -3.44501766     -58.85649201
O        1.08339226       0.37623116      -0.05236510        0       1.88855488      -0.62927600       0.67226610       4.25307542      -1.09779870      -1.14568535       4.25307542      -1.09779870      -1.14568535    -109.81500521
O       -0.81032434       0.80914395       0.65610084        0       0.06281696       0.78328370       2.14700944      -5.23682954       0.57460436      -0.35405687      -5.23682954       0.57460436      -0.35405687    -110.59191836
O       -0.51582859      -0.96039505      -1.01379616        0      -1.18915774       0.54426896      -1.34724313       1.84435205      -0.17981297       2.14271261       1.84435205      -0.17981297       2.14271261    -110.22702874
C       -0.23206558       1.59383895       1.58657765        0       0.16937141      -0.20791176      -0.34964909       2.25760665      -4.12580178       3.30704103       2.25760665      -4.12580178       3.30704103     -57.92802151
C        0.48534214      -1.91067289      -1.20471945        0       0.27117502      -1.31926893      -0.20331266      -3.47314375       6.24258679      -1.18646335      -3.47314375       6.24258679      -1.18646335     -57.42205367
H       -1.03091492       2.06317167       2.14881325        0      -0.26667376       0.59168406      -0.14026729       0.42047459      -0.11125622       0.47763981       0.42047459      -0.11125622       0.47763981     -13.76840496
H        0.63389539       0.66046860       2.07662782        0      -0.36580156      -0.07296639       0.09368340      -1.82049853       3.93693055       0.09175325      -1.82049853       3.93693055       0.09175325     -12.75701067
H       -0.46646612       2.58777480       1.76935382        0       0.51613187       0.10525525      -0.20945605       0.40891478       1.01058441      -0.46971414       0.40891478       1.01058441      -0.46971414     -13.96890347
H        0.74523253      -2.52138510      -0.49172626        0      -0.47526189       0.30131231       0.37705615       1.11303002      -1.22252995       1.16292500       1.11303002      -1.22252995       1.16292500     -13.79148426
H        0.43132441      -2.86362813      -1.26762382        0      -0.34893465      -0.10306378       0.28476413      -0.06578063      -2.68601531      -0.20144852      -0.06578063      -2.68601531      -0.20144852     -13.78784470
H        0.05432929      -1.06150645      -1.76859574        0       0.24173923      -0.31112286       0.18409519       1.33116354      -1.23807577      -0.37968581       1.33116354      -1.23807577      -0.37968581     -14.23737224
12
Properties=species:S:1:pos:R:3:molID:I:1:momenta:R:3:force_mace:R:3:forces:R:3:energies:R:1 Nmols=1 Comp=DMC(1) energy_mace=-587.7268148420326 energy=-587.7268148420326 stress="1.6511240709559993e-05 -8.229080360250044e-07 2.795285675234797e-06 -8.229080360250044e-07 5.326851474097013e-06 -2.761163438577897e-07 2.795285675234797e-06 -2.761163438577897e-07 1.628252860549434e-05" free_energy=-587.7268148420326 pbc="F F F"
C       -0.02502514       0.11558528      -0.14615643        0       1.27551483       0.86723723      -1.98669754       1.11262473      -0.18773171       0.78195798       1.11262473      -0.18773171       0.78195798     -58.99507974
O        1.18909743       0.29136581      -0.05388483        0       0.05274216      -1.90676260      -0.46463462      -3.05825042      -0.54107973      -0.50455959      -3.05825042      -0.54107973      -0.50455959    -109.90031108
O       -0.90038606       0.83682916       0.72013157        0      -1.96804881      -0.39398693      -0.03421446       1.80733867      -2.30030305      -1.79242173       1.80733867      -2.30030305      -1.79242173    -110.39059509
O       -0.49060167      -0.94760850      -1.05789083        0       1.87802384       0.17498388      -0.04014673       2.02447402       1.68499588       0.31630488       2.02447402       1.68499588       0.31630488    -110.50973920
C       -0.24077542       1.60026145       1.65182564        0      -0.42986223       1.23917607       1.07601960       3.23654498      -0.80876177       2.56311683       3.23654498      -0.80876177       2.56311683     -57.86798833
C        0.40979948      -1.95380853      -1.15052457        0      -2.05700993      -0.72785706       1.69007462      -2.44171805       0.35207309      -0.35407374      -2.44171805       0.35207309      -0.35407374     -57.67226221
H       -0.74863915       2.42592496       1.89962391        0       0.21657954       0.36512207      -0.14982422      -0.98069980       1.59365130       0.76955126      -0.98069980       1.59365130       0.76955126     -13.88110856
H        0.51768877       1.11848024       2.63099412        0       0.24140270       0.00085257       0.74851858      -2.71466054       0.93316723      -3.63858049      -2.71466054       0.93316723      -3.63858049     -13.26680471
H       -0.03084234       2.62055950       1.36933106        0       0.55941647       0.08074399      -0.73700226       0.05618543      -0.65016013       0.23149507       0.05618543      -0.65016013       0.23149507     -13.92763572
H        0.51655357      -2.69676109      -0.39501117        0       0.15226159      -0.01909855      -0.09195285       1.39508689       0.55256646       0.71275254       1.39508689       0.55256646       0.71275254     -13.77739699
H        0.07436194      -2.95247173      -0.91080948        0      -0.20196178       0.32893568       0.12896279      -0.06775327      -0.32629207      -1.07338393      -0.06775327      -0.32629207      -1.07338393     -13.72479822
H        0.36263500      -1.23329646      -1.94863134        0       0.28094163      -0.00934637      -0.13910290      -0.36917264      -0.30212550       1.98784094      -0.36917264      -0.30212550       1.98784094     -13.81309500
12
Properties=species:S:1:pos:R:3:molID:I:1:momenta:R:3:force_mace:R:3:forces:R:3:energies:R:1 Nmols=1 Comp=DMC(1) energy_mace=-587.7540483234624 energy=-587.7540483234624 stress="-4.866330149468912e-07 -4.136571244857508e-06 -6.436438398120267e-06 -4.136571244857508e-06 -4.285834317316771e-07 3.271741618291645e-06 -6.436438398120267e-06 3.271741618291645e-06 8.364687277227e-06" free_energy=-587.7540483234624 pbc="F F F"
C        0.01294565       0.19927188      -0.24258980        0      -0.47710545       0.70502831       0.58241254      -1.77626501      -0.71816189       4.15887191      -1.77626501      -0.71816189       4.15887191     -58.72966283
O        1.18334864       0.17507149      -0.06456677        0       0.25505142      -1.93423501       0.19095979       0.93149749       2.09906215       0.75905237       0.93149749       2.09906215       0.75905237    -109.87434276
O       -0.94475059       0.76977389       0.70777266        0       0.50496608      -1.15206939      -1.01011872       3.14978132       0.68020952      -1.49432892       3.14978132       0.68020952      -1.49432892    -109.77166701
O       -0.34509081      -0.88180518      -1.06829706        0       1.84233299       2.51414988      -0.11290268      -2.67347776       0.93256815      -1.25074907      -2.67347776       0.93256815      -1.25074907    -110.42725985
C       -0.26702803       1.74623526       1.69506866        0      -1.36139456       1.49818084      -1.08937781      -0.66276549      -5.25124905       0.94171722      -0.66276549      -5.25124905       0.94171722     -57.90234725
C        0.25374929      -2.01996772      -1.02190498        0      -1.38630439      -1.38687705       1.35955726       0.36004093       1.28528937      -1.19857801       0.36004093       1.28528937      -1.19857801     -57.49480504
H       -0.39435911       2.76460130       1.46830486        0       0.23866432       0.45814696      -0.71184960      -0.35404943       0.06917012      -0.07792215      -0.35404943       0.06917012      -0.07792215     -14.04749339
H       -0.09348677       1.05024206       2.70872837        0      -0.36065544      -0.69007094       0.94489484      -0.44941554       2.32417514      -2.55333013      -0.44941554       2.32417514      -2.55333013     -13.70332364
H        0.32322133       2.35390253       1.10725322        0       0.70589787       0.03771955      -0.18006642       0.97386141       1.08129643      -0.05537210       0.97386141       1.08129643      -0.05537210     -13.91339598
H        0.75624183      -2.61557576      -0.43487318        0      -0.05368523      -0.07977610      -0.06012751       0.65399977      -1.66528774       1.47487969       0.65399977      -1.66528774       1.47487969     -13.77476180
H        0.00070675      -2.98165952      -0.87557069        0       0.26303035       0.07566553       0.05111121      -0.03361860      -0.85334306       0.37054528      -0.03361860      -0.85334306       0.37054528     -13.83000026
H        0.33185961      -1.26339392      -1.66732901        0      -0.17079797      -0.04586258       0.03550710      -0.11958909       0.01627086      -1.07478609      -0.11958909       0.01627086      -1.07478609     -14.28498854
12
Properties=species:S:1:pos:R:3:molID:I:1:momenta:R:3:force_mace:R:3:forces:R:3:energies:R:1 Nmols=1 Comp=DMC(1) energy_mace=-587.8812960252726 energy=-587.8812960252726 stress="-3.925801311684806e-06 -4.840754837301205e-06 1.1449094519427328e-06 -4.840754837301205e-06 3.008364439553256e-06 3.330246513319542e-06 1.1449094519427328e-06 3.330246513319542e-06 -1.427963197760408e-05" free_energy=-587.8812960252726 pbc="F F F"
C        0.01086799       0.21101114      -0.11170053        0       0.96498331      -0.96329275       1.96377508       3.27225678      -3.66151926      -1.65206367       3.27225678      -3.66151926      -1.65206367     -59.11951973
O        1.22171664       0.14543225       0.00557283        0       0.04228128       0.65119882       1.92439325      -1.00608199       1.71146131       1.07181246      -1.00608199       1.71146131       1.07181246    -109.70465058
O       -0.88565436       0.72942688       0.64128003        0       0.95493767       0.05650201      -1.34935177      -0.43926612       1.37406503       0.54635633      -0.43926612       1.37406503       0.54635633    -110.54877878
O       -0.31987614      -0.75682655      -1.12583456        0      -0.69198404       1.45773411      -1.28826680      -1.23597474      -2.00311018       0.65087363      -1.23597474      -2.00311018       0.65087363    -110.06536554
C       -0.32123879       1.73837223       1.56369140        0       0.14471096      -0.74129374      -2.93350533      -0.14881239      -1.38664370      -4.94585141      -0.14881239      -1.38664370      -4.94585141     -57.53261775
C        0.15782198      -2.06664952      -0.92682914        0      -0.46368978      -0.33390862       0.64860573      -0.48934888       2.82760826      -1.84152659      -0.48934888       2.82760826      -1.84152659     -57.09209413
H       -0.10681780       2.57843694       1.03646084        0      -0.03207993      -0.10627802      -0.29456956      -0.40320388       2.25125737      -0.20062997      -0.40320388       2.25125737      -0.20062997     -13.93077625
H       -0.51621297       1.38777879       2.41690070        0      -0.71280476       0.32648710       0.69448088      -1.69234437      -1.23240742       6.14041618      -1.69234437      -1.23240742       6.14041618     -13.76081927
H        0.57888996       2.15754753       1.32480181        0       0.40368758      -0.63147512       0.10021087       1.92734281       0.16297854      -0.77034636       1.92734281       0.16297854      -0.77034636     -13.87514215
H        0.64511520      -2.63562446      -0.27068443        0      -0.16225363       0.27968739       0.28715516       1.18299561      -0.30387945       1.78981795       1.18299561      -0.30387945       1.78981795     -13.87921993
H        0.16894531      -3.11492411      -0.76477574        0      -0.02382881       0.12339412       0.20027830      -1.03723050       0.17561124      -0.29159918      -1.03723050       0.17561124      -0.29159918     -13.89366313
H        0.09424202      -1.38606540      -1.66456376        0      -0.42395985      -0.11875530       0.04679419       0.06966767       0.08457826      -0.49725937       0.06966767       0.08457826      -0.49725937     -14.47864880
12
Properties=species:S:1:pos:R:3:molID:I:1:momenta:R:3:force_mace:R:3:forces:R:3:energies:R:1 Nmols=1 Comp=DMC(1) energy_mace=-588.2567090854286 energy=-588.2567090854286 stress="-1.1248123645637746e-05 -2.9125451588931062e-06 5.820835369923955e-06 -2.9125451588931062e-06 -2.5745845675496315e-06 -6.682864817819394e-06 5.820835369923955e-06 -6.682864817819394e-06 -9.743399876691345e-06" free_energy=-588.2567090854286 pbc="F F F"
C        0.10874235       0.06290101      -0.02172119        0       0.52411614      -2.41373874      -0.16302425      -2.53239855       0.61960098      -2.51774389      -2.53239855       0.61960098      -2.51774389     -58.91866723
O        1.25183430       0.20329435       0.13388342        0       1.15544213       0.77668751       1.88555334       2.17094289      -0.70289477       0.30614316       2.17094289      -0.70289477       0.30614316    -110.12280774
O       -0.84692706       0.79176151       0.55923362        0      -0.47647146       0.74332137      -1.80840149      -1.25980698      -2.60579071      -2.05713858      -1.25980698      -2.60579071      -2.05713858    -110.71315065
O       -0.39082653      -0.76467687      -1.15012066        0      -0.84178139      -1.54013036       0.64362191       0.96595483      -1.69400627       1.95092584       0.96595483      -1.69400627       1.95092584    -110.28108737
C       -0.33671674       1.66072880       1.41576894        0       0.01716455      -0.36994339      -0.50743975       3.67208642       2.02766248      -1.31245135       3.67208642       2.02766248      -1.31245135     -57.70309182
C        0.09996070      -2.01396649      -0.92932214        0      -1.30468813       1.62547659      -0.61102324      -0.67393127       1.02447551      -1.11646143      -0.67393127       1.02447551      -1.11646143     -57.35135363
H        0.26775541       2.47747613       1.13395961        0       0.59204545      -0.04861038       0.54785465      -0.05813816       1.22891199      -1.19108902      -0.05813816       1.22891199      -1.19108902     -13.78373910
H       -0.81382817       1.76638590       2.23841206        0       0.33005625       0.44974410      -1.14850074      -3.44583642       0.24231662       4.98989019      -3.44583642       0.24231662       4.98989019     -13.70872583
H        0.70145316       1.91372121       1.35888685        0      -0.04649705       0.19223458       0.45157792       0.82358317      -0.68494454       0.39361149       0.82358317      -0.68494454       0.39361149     -13.76836575
H        0.57787201      -2.41590890      -0.06838312        0       0.13691130       0.37213941       0.03297912       0.76880897       0.49680084       0.13110128       0.76880897       0.49680084       0.13110128     -13.74311237
H        0.07764759      -2.93368333      -0.39663928        0      -0.16448400       0.29242242       0.48702046      -0.88401252       0.04779417      -0.49383847      -0.88401252       0.04779417      -0.49383847     -13.83645811
H       -0.20469012      -1.46817910      -1.82853200        0       0.07818620      -0.07960311       0.18978206       0.45274760       0.00007369       0.91705078       0.45274760       0.00007369       0.91705078     -14.32614949
12
Properties=species:S:1:pos:R:3:molID:I:1:momenta:R:3:force_mace:R:3:forces:R:3:energies:R:1 Nmols=1 Comp=DMC(1) energy_mace=-587.8324192694392 energy=-587.8324192694392 stress="1.8673212067809106e-05 8.494616326826301e-06 3.6609041940789275e-06 8.494616326826301e-06 -1.0463773974045025e-05 5.5632325825437886e-06 3.6609041940789275e-06 5.5632325825437886e-06 9.324508714027531e-06" free_energy=-587.8324192694392 pbc="F F F"
C        0.09483730      -0.06439087      -0.11423236        0       0.37398007       0.44542059      -1.21350739       2.45112281       5.14037085       3.15712651       2.45112281       5.14037085       3.15712651     -59.05359641
O        1.28760483       0.19243201       0.22728482        0      -0.78406473      -0.89684805       0.99988621      -3.24923167      -2.28392158      -1.77354091      -3.24923167      -2.28392158      -1.77354091    -109.67032221
O       -0.88134494       0.76277945       0.44537525        0       0.25368945      -0.85511493      -1.38948175       3.20561844       0.19638066       0.64257008       3.20561844       0.19638066       0.64257008    -110.07763630
O       -0.42977703      -0.80412926      -1.05337168        0      -0.90726857       0.66256512       1.33149205      -1.64992399       2.19080104      -2.40638772      -1.64992399       2.19080104      -2.40638772    -110.57395625
C       -0.21876212       1.74646235       1.38039953        0       0.14455282       1.38810535       0.95887018      -5.40480478      -2.39019011       1.22016600      -5.40480478      -2.39019011       1.22016600     -57.88122281
C        0.03291202      -1.93118829      -0.92830449        0       0.02688358       0.21774096       0.11270746       1.89017280      -1.65242045       0.45523303       1.89017280      -1.65242045       0.45523303     -57.35180038
H        0.45708937       2.39477080       1.07409733        0       0.24377197      -0.26238553      -0.49190165       1.98742841       0.61818576      -0.47330668       1.98742841       0.61818576      -0.47330668     -13.90785442
H       -1.03296387       2.04092655       2.09909228        0       0.81420264      -0.11453460      -0.99499649       1.35964497      -0.19657534      -1.05540066       1.35964497      -0.19657534      -1.05540066     -14.00705033
H        0.75803092       1.62484175       1.71858932        0      -0.21723673      -0.39077176       0.11676721      -0.21042289       0.71265636      -0.65312704      -0.21042289       0.71265636      -0.65312704     -13.89078452
H        0.84213230      -2.17294291      -0.31413022        0       0.17964693      -0.42959948      -0.14575137      -0.79967495      -1.05041286       0.37365671      -0.79967495      -1.05041286       0.37365671     -13.58502031
H       -0.08409639      -2.45313180      -0.01975448        0       0.03945242       0.26077519       0.52629112       0.96364989      -0.50266198      -0.81082537       0.96364989      -0.50266198      -0.81082537     -13.59432342
H       -0.15052098      -1.35472907      -1.84534897        0      -0.16760987      -0.02535285       0.18962441      -0.54357905      -0.78221235       1.32383603      -0.54357905      -0.78221235       1.32383603     -14.23885190
12
Properties=species:S:1:pos:R:3:molID:I:1:momenta:R:3:force_mace:R:3:forces:R:3:energies:R:1 Nmols=1 Comp=DMC(1) energy_mace=-587.6580604000319 energy=-587.6580604000319 stress="-8.132413005502227e-06 -7.766310564626504e-07 1.3018568619042681e-06 -7.766310564626504e-07 -6.640302958232809e-10 -1.3780425464610173e-06 1.3018568619042681e-06 -1.3780425464610173e-06 4.765522043385796e-06" free_energy=-587.6580604000319 pbc="F F F"
C        0.13621455       0.12431520      -0.11589028        0      -0.37177176       2.53918723      -0.44401554      -2.32344218      -2.90639215      -3.06545618      -2.32344218      -2.90639215      -3.06545618     -58.99098838
O        1.21731397       0.08932469       0.24198575        0       0.73514292      -2.03370720       0.17035566       5.93714161      -0.84844625       0.52069204       5.93714161      -0.84844625       0.52069204    -109.97038241
O       -0.77839616       0.74448252       0.39798235        0       0.94403201       1.31681999       0.33914785      -4.02546716       4.68355099       3.38156177      -4.02546716       4.68355099       3.38156177    -110.39376536
O       -0.49518530      -0.75735155      -1.04027659        0      -0.90441402      -0.03177048      -0.47822927       2.18724162      -1.15824445       0.97507517       2.18724162      -1.15824445       0.97507517    -110.23018491
C       -0.25124555       1.78143184       1.34150376        0      -1.96759768       0.22850497      -0.26201563      -1.64011709       0.77459263       1.35983056      -1.64011709       0.77459263       1.35983056     -57.94423869
C        0.07369134      -2.00015990      -0.85753786        0       0.57036967      -1.15984541       1.07146826      -0.96210601       0.80655857      -0.15924379      -0.96210601       0.80655857      -0.15924379     -57.32923207
H        0.76736008       1.96851554       1.00014945        0       0.39195915      -0.14514997       0.33610000      -0.50274417       1.72190094      -0.14142725      -0.50274417       1.72190094      -0.14142725     -13.69326559
H       -1.18466329       2.39552579       2.00668424        0       0.68378279      -0.14791020      -0.58742784       2.82583984      -2.14725622      -2.59211685       2.82583984      -2.14725622      -2.59211685     -13.37751880
H        0.78460868       1.63014925       1.68096184        0      -0.02143929       0.20386789      -0.12282756      -1.11284251      -0.75478578       0.45811081      -1.11284251      -0.75478578       0.45811081     -13.77297634
H        0.86715734      -2.64664601      -0.42176370        0       0.40717078      -0.32025182      -0.27527840      -1.51196348       1.46870941      -0.53536324      -1.51196348       1.46870941      -0.53536324     -13.78016477
H        0.08883839      -2.52133311       0.04798354        0       0.02152574      -0.37851551      -0.00417905       0.56537877      -0.72464657      -0.35942205       0.56537877      -0.72464657      -0.35942205     -13.80548049
H       -0.49718151      -1.47607402      -1.63450624        0      -0.48876031      -0.07122949       0.25690152       0.56308076      -0.91554111       0.15775900       0.56308076      -0.91554111       0.15775900     -14.36986259
12
Properties=species:S:1:pos:R:3:molID:I:1:momenta:R:3:force_mace:R:3:forces:R:3:energies:R:1 Nmols=1 Comp=DMC(1) energy_mace=-587.0975605227102 energy=-587.0975605227102 stress="2.3630127906085926e-05 -1.4540371908121857e-05 -1.1956161320405586e-06 -1.4540371908121857e-05 1.5066162971367095e-05 -5.854013448614124e-06 -1.1956161320405586e-06 -5.854013448614124e-06 2.224345775872899e-06" free_energy=-587.0975605227102 pbc="F F F"
C        0.15838860       0.19610539      -0.20555544        0       1.01739395      -0.73481255      -0.77118634       0.15072466      -2.57519562       2.36868723       0.15072466      -2.57519562       2.36868723     -58.78614135
O        1.30174251      -0.01371551       0.22121950        0       0.51533619      -1.06447586      -0.37255709      -3.04553286       1.64462955      -1.42831258      -3.04553286       1.64462955      -1.42831258    -109.90783430
O       -0.84810015       0.92209521       0.43822325        0      -2.31327733       3.15806541      -0.73477235       1.65541154      -2.23845865      -3.43593896       1.65541154      -2.23845865      -3.43593896    -110.66385846
O       -0.46668968      -0.80246623      -0.99283064        0       1.69056813      -1.29829635       1.58243541       1.67624121      -0.34658978       1.05039078       1.67624121      -0.34658978       1.05039078    -110.30052691
C       -0.28342247       1.75176590       1.26746371        0      -0.32244930       0.16577439      -0.38130644      -0.17147299       5.61372263       5.17989053      -0.17147299       5.61372263       5.17989053     -57.76299377
C        0.04836889      -2.06354273      -0.78214382        0      -0.48747723      -0.54962887       0.84244752       2.65970605      -2.59093733       1.31418284       2.65970605      -2.59093733       1.31418284     -57.08461355
H        0.65764144       2.26293312       1.22603878        0       0.06228093       0.48830107       0.03882226      -0.51496523      -1.59561673       0.25317450      -0.51496523      -1.59561673       0.25317450     -13.72283774
H       -1.18693682       2.69827628       1.67620677        0       0.05200955      -0.00837615      -0.13440302       2.83251304      -3.24745507      -1.02906371       2.83251304      -3.24745507      -1.02906371     -13.06806021
H        0.51198561       1.42342479       2.00336478        0      -0.48763166      -0.13256626       0.48367856      -1.53952173       1.51173543      -1.94077114      -1.53952173       1.51173543      -1.94077114     -13.64860425
H        0.97953638      -2.70154535      -0.68630594        0       0.44509471       0.11347426      -0.22927096      -2.21733463       1.49448589      -0.05002777      -2.21733463       1.49448589      -0.05002777     -13.78508599
H        0.26969622      -2.94399031      -0.16230888        0       0.14838888      -0.07611866      -0.41695277       0.06624244       1.65792161      -0.83101966       0.06624244       1.65792161      -0.83101966     -13.86269532
H       -0.64118403      -1.66948302      -1.27872756        0      -0.32023683      -0.06134042       0.09306521      -1.55201150       0.67175806      -1.45119206      -1.55201150       0.67175806      -1.45119206     -14.50430867
12
Properties=species:S:1:pos:R:3:molID:I:1:momenta:R:3:force_mace:R:3:forces:R:3:energies:R:1 Nmols=1 Comp=DMC(1) energy_mace=-587.3622853138279 energy=-587.3622853138279 stress="8.532051521685688e-06 -1.3038858717057956e-05 -6.8260792863412545e-06 -1.3038858717057956e-05 -1.422943181912936e-06 -4.138604485365995e-06 -6.8260792863412545e-06 -4.138604485365995e-06 2.5743736830860435e-06" free_energy=-587.3622853138279 pbc="F F F"
C        0.17041704       0.08646124      -0.16491211        0      -1.46569056      -1.39887648       1.74752905      -3.69323150       2.13306863       1.80235432      -3.69323150       2.13306863       1.80235432     -58.92077026
O        1.27378169      -0.04944658       0.16196775        0      -0.43440955      -0.29268729      -1.03100258       3.09131388       1.69147299       1.75741254       3.09131388       1.69147299       1.75741254    -109.94548313
O       -0.88793881       1.01102263       0.33516901        0       1.05870861       0.46191318      -2.15094623       4.69938781      -1.40852087      -0.29722497       4.69938781      -1.40852087      -0.29722497    -110.07625866
O       -0.33631346      -0.87132083      -0.89080027        0       1.49909770      -0.46767699       1.04765163      -2.90076130       2.16817419      -0.87996755      -2.90076130       2.16817419      -0.87996755    -110.55492303
C       -0.30486282       1.88077457       1.29583051        0      -0.33058294       1.35024950       1.03721662      -1.71036954       0.76214282       3.04801424      -1.71036954       0.76214282       3.04801424     -58.05164162
C        0.01038424      -2.08512796      -0.75873041        0      -0.15211610       0.14996828      -0.31086702       2.79063968      -1.77194962      -0.32099323       2.79063968      -1.77194962      -0.32099323     -57.35854113
H        0.76314395       2.21890945       1.14131960        0       0.22758486       0.02204622      -0.46852396      -1.47861715       0.38327251      -1.04468107      -1.47861715       0.38327251      -1.04468107     -13.94531308
H       -1.29218437       2.71218801       1.52168991        0      -0.37681700       0.60315523      -0.01924559       3.45186063      -2.02083983      -0.49564353       3.45186063      -2.02083983      -0.49564353     -13.43567384
H       -0.03699969       1.35631415       2.38028129        0      -0.56121245      -0.40702054       0.36479646      -1.57722271       0.56025077      -2.33812474      -1.57722271       0.56025077      -2.33812474     -13.65550187
H        1.03079284      -2.33229255      -0.83767517        0       0.01578408      -0.10920991       0.08903997      -0.68612522      -1.62793462       0.51410514      -0.68612522      -1.62793462       0.51410514     -13.56457338
H        0.46681611      -2.99500435      -0.44690089        0       0.27388937       0.43354646      -0.36028396      -0.21230074       1.65686229      -0.37297979      -0.21230074       1.65686229      -0.37297979     -13.79785632
H       -0.74570227      -1.52262761      -1.16436188        0       0.24576396      -0.34540766       0.05463560      -1.77457385      -2.52599924      -1.37227135      -1.77457385      -2.52599924      -1.37227135     -14.05574899
12
Properties=species:S:1:pos:R:3:molID:I:1:momenta:R:3:force_mace:R:3:forces:R:3:energies:R:1 Nmols=1 Comp=DMC(1) energy_mace=-588.2880603594389 energy=-588.2880603594389 stress="-2.0960352034590947e-07 -3.2698056191465513e-06 -1.268916676855168e-06 -3.2698056191465513e-06 6.447617262764914e-06 9.763387320514528e-07 -1.268916676855168e-06 9.763387320514528e-07 3.741901371935079e-06" free_energy=-588.2880603594389 pbc="F F F"
C        0.06192512       0.05410289       0.02866656        0      -0.23115501      -0.20907427       2.02843198       4.19079541      -1.40996549      -2.40411833       4.19079541      -1.40996549      -2.40411833     -59.10171795
O        1.28526021      -0.01210153       0.15118967        0      -0.06406471       2.00808255       0.48418648      -1.83931421       0.60111192       1.37404069      -1.83931421       0.60111192       1.37404069    -109.69257464
O       -0.75149437       1.01925568       0.20695485        0       2.05418929       0.08957658      -1.67376277      -1.60369410       1.75063668       2.09064447      -1.60369410       1.75063668       2.09064447    -110.36220006
O       -0.38667837      -0.91512837      -0.87377035        0      -2.55836787      -1.11952380      -0.16344151      -1.83595317       0.22517331       0.59139904      -1.83595317       0.22517331       0.59139904    -110.40418098
C       -0.37595297       1.95010971       1.37456340        0      -0.58181226      -0.82061898      -0.11716675      -1.40547121       0.84306150      -2.95754649      -1.40547121       0.84306150      -2.95754649     -57.77653636
C        0.08659832      -2.12252531      -0.81256533        0       1.49592213      -1.05355521      -0.94036505      -0.26945129      -0.65759990      -0.89413887      -0.26945129      -0.65759990      -0.89413887     -57.41678111
H        0.54885906       2.26492921       0.92636072        0       0.43271338       0.07761474       0.06039360       1.28897522      -0.31620927       1.22577398       1.28897522      -0.31620927       1.22577398     -13.81660475
H       -0.94104183       2.94730949       1.32560274        0      -0.32520642       1.03108912      -0.24455498      -0.07981508      -1.55167733      -0.04958518      -0.07981508      -1.55167733      -0.04958518     -13.88667058
H       -0.65647580       1.40924912       2.25867748        0      -0.27025685      -0.09022265       0.42465383       0.75901030      -0.07333376       0.38902541       0.75901030      -0.07333376       0.38902541     -14.12978074
H        1.05373034      -2.45993437      -0.81075728        0       0.06179407       0.09683644      -0.10763240       1.30522368       0.31853655      -0.33138748       1.30522368       0.31853655      -0.33138748     -13.73116050
H        0.61982032      -3.06827538      -0.54504026        0      -0.29680203      -0.15787988       0.05483296      -1.57163011       0.96678687       0.36057302      -1.57163011       0.96678687       0.36057302     -13.71786426
H       -0.83696139      -1.62963173      -1.24266135        0       0.28304628       0.14767536       0.19442461       1.06132456      -0.69652109       0.60531973       1.06132456      -0.69652109       0.60531973     -14.25198843
12
Properties=species:S:1:pos:R:3:molID:I:1:momenta:R:3:force_mace:R:3:forces:R:3:energies:R:1 Nmols=1 Comp=DMC(1) energy_mace=-588.1937062333583 energy=-588.1937062333583 stress="-1.2874973006116131e-05 4.589990808438e-06 2.813726471642592e-07 4.589990808438e-06 3.198404822101909e-06 2.945413394382402e-06 2.813726471642592e-07 2.945413394382402e-06 2.4535733482683222e-06" free_energy=-588.1937062333583 pbc="F F F"
C        0.11617619      -0.02010598       0.06973591        0       0.47251170      -0.61098748      -0.99258495      -4.12903661       2.00533308      -2.87883519      -4.12903661       2.00533308      -2.87883519     -58.73377269
O        1.24513798       0.09919050       0.22300371        0      -0.34943707       1.43692013       1.86317908       4.18157350      -1.43366900       1.18236391       4.18157350      -1.43366900       1.18236391    -110.05094724
O       -0.67055983       1.09127735       0.19402650        0       0.95041736       1.40580587       0.78921285      -0.75516948      -1.62717874       0.33227944      -0.75516948      -1.62717874       0.33227944    -110.31406368
O       -0.52847418      -0.99971353      -0.81972091        0      -2.03929126      -2.04749523       1.46509077       1.92012415      -1.54772215       1.60402813       1.92012415      -1.54772215       1.60402813    -110.34519523
C       -0.42493845       1.95752717       1.28278862        0       0.11448389      -0.42374044      -1.85150960       3.62556136      -4.51716567       0.95174901       3.62556136      -4.51716567       0.95174901     -58.07451244
C        0.20161410      -2.14960315      -0.92993771        0       0.89136451       0.98781518      -1.46425240      -3.24106181      -0.12965466       0.48484158      -3.24106181      -0.12965466       0.48484158     -57.24748103
H        0.61807030       2.12883092       1.51275612        0      -0.07039989      -0.28830571       0.65450611       0.78519866       0.24376243      -0.89185385       0.78519866       0.24376243      -0.89185385     -13.80356703
H       -0.89130470       2.75178919       1.01079877        0      -0.46111798       0.26072875      -0.52257842      -3.10515363       5.13736551      -0.87971498      -3.10515363       5.13736551      -0.87971498     -13.75132059
H       -0.57318577       1.51768968       2.23897635        0      -0.06725489      -0.18212333       0.17426978      -1.37480207      -0.47194274       0.64953798      -1.37480207      -0.47194274       0.64953798     -13.88644972
H        1.12820586      -2.50547074      -0.88148324        0       0.08377545      -0.56276100       0.02534830       0.76771912      -0.93034561       0.64033631       0.76771912      -0.93034561       0.64033631     -13.83275734
H        0.45055061      -3.05813402      -0.34717671        0       0.40477057       0.08992834       0.18785153       0.75653970       2.41560311      -1.15569496       0.75653970       2.41560311      -1.15569496     -13.75208226
H       -0.68403091      -1.89178185      -1.35604365        0       0.07017762      -0.06578507      -0.32853306       0.56850711       0.85561442      -0.03903739       0.56850711       0.85561442      -0.03903739     -14.40155698
12
Properties=species:S:1:pos:R:3:molID:I:1:momenta:R:3:force_mace:R:3:forces:R:3:energies:R:1 Nmols=1 Comp=DMC(1) energy_mace=-588.1211907180573 energy=-588.1211907180573 stress="-9.439034362852063e-07 1.3906762494640634e-05 5.732482228367791e-07 1.3906762494640634e-05 -9.186823411114171e-06 3.879903039191268e-06 5.732482228367791e-07 3.879903039191268e-06 1.664363209049812e-06" free_energy=-588.1211907180573 pbc="F F F"
C        0.10680590      -0.03127016      -0.06325953        0       0.08779810       0.25231433      -1.67291467       2.11574349       2.67801504       2.16572553       2.11574349       2.67801504       2.16572553     -59.02790580
O        1.27034448       0.13536927       0.35310542        0       0.37436707      -0.57652389       1.83732788      -2.34856499      -2.70498869      -1.86599863      -2.34856499      -2.70498869      -1.86599863    -109.56831941
O       -0.62812694       1.11631916       0.19692425        0      -0.26652563      -0.82788907      -1.22585585      -1.79428015      -2.39278362      -3.11452964      -1.79428015      -2.39278362      -3.11452964    -110.23527075
O       -0.58126350      -1.11995067      -0.70594046        0       0.33610542      -1.26209598       1.86723818       1.22353420       2.31150709       0.07555278       1.22353420       2.31150709       0.07555278    -110.56824173
C       -0.42249363       1.94864725       1.24052774        0      -0.12413193      -0.21950850       1.02759753       0.03206601      -2.83006584       1.69798561       0.03206601      -2.83006584       1.69798561     -58.26111366
C        0.20884808      -2.10248249      -1.02863382        0      -0.34339624       0.27328537      -1.03833193      -1.89225863       0.77634287       0.79568322      -1.89225863       0.77634287       0.79568322     -57.35265673
H        0.60034769       2.01224771       1.46366221        0      -0.07700913       0.19050153      -0.28254743       1.20869521       0.33701553       0.75179292       1.20869521       0.33701553       0.75179292     -14.01250807
H       -0.89510880       2.77500878       0.96392145        0       0.19080880       0.48689021       0.11061780      -1.32207047       4.28171496      -1.33823896      -1.32207047       4.28171496      -1.33823896     -13.63638409
H       -1.08855872       1.60314944       2.03235433        0      -0.38873946       0.37297074      -0.20892632       0.55285592      -0.40169752       0.94916677       0.55285592      -0.40169752       0.94916677     -13.79844337
H        1.01820988      -2.65089070      -1.08450071        0      -0.15636527       0.21090323      -0.30744611       1.36391778      -1.08176846       1.45664093       1.36391778      -1.08176846       1.45664093     -13.75940646
H        0.55622663      -2.70245383      -0.19287778        0       0.10367471       0.33695655       0.14130981       0.84218941      -0.48170122      -2.27745385       0.84218941      -0.48170122      -2.27745385     -13.58383609
H       -0.42792925      -1.47520594      -1.62101703        0       0.26341356       0.76219547      -0.24806888       0.01817221      -0.49159015       0.70367332       0.01817221      -0.49159015       0.70367332     -14.31710455
12
Properties=species:S:1:pos:R:3:molID:I:1:momenta:R:3:force_mace:R:3:forces:R:3:energies:R:1 Nmols=1 Comp=DMC(1) energy_mace=-588.2097577306185 energy=-588.2097577306185 stress="-7.555619860884647e-06 5.5635475745494755e-06 6.518371883485243e-07 5.5635475745494755e-06 4.813431867699389e-06 9.77841388659814e-06 6.518371883485243e-07 9.77841388659814e-06 2.5803994704512054e-06" free_energy=-588.2097577306185 pbc="F F F"
C        0.18715637       0.08133712      -0.07192913        0       0.93857568       1.57132231       1.24526721      -2.06801102      -1.36420144       0.84153834      -2.06801102      -1.36420144       0.84153834     -58.88192805
O        1.24988153       0.02921637       0.42119453        0      -0.25602380      -2.44103954       0.89537717       1.75357107      -0.47385775      -0.10983608       1.75357107      -0.47385775      -0.10983608    -110.03700996
O       -0.66865290       1.05187031       0.07986122        0      -0.96430576      -0.49730597      -1.60100660      -0.57717314       2.04887924       1.54159073      -0.57717314       2.04887924       1.54159073    -110.20751792
O       -0.56300465      -1.10490148      -0.61802004        0       0.63424145       1.56180402       1.45840964       1.43935353       1.37220032      -0.45904823       1.43935353       1.37220032      -0.45904823    -110.45587139
C       -0.46625318       1.98217583       1.28200125        0      -0.93922701       1.38199296      -0.35464732       0.00949302      -0.00776877      -3.20945598       0.00949302      -0.00776877      -3.20945598     -57.89845276
C        0.18896350      -2.08481262      -1.11989384        0       0.52218157      -0.15441752      -0.96631785       1.95752758      -1.43024517       2.48683872       1.95752758      -1.43024517       2.48683872     -57.20662150
H        0.50031503       2.08672894       1.66998927        0      -0.10531376      -0.21331276       0.41244832       1.43432322      -1.25994233       0.42556155       1.43432322      -1.25994233       0.42556155     -13.98224774
H       -0.58532699       2.99470657       0.94495424        0       0.44265310      -0.53282103      -0.25677080      -0.50812044       0.51190874      -0.96803386      -0.50812044       0.51190874      -0.96803386     -13.87818069
H       -1.21101446       1.85067405       1.98478837        0       0.13285866       0.07505190      -0.06281151      -1.22319551      -1.03266160       1.32741245      -1.22319551      -1.03266160       1.32741245     -14.07187362
H        0.95518324      -2.79519497      -1.01160943        0      -0.25965597      -0.02592717      -0.19519474       0.16945439       0.06487911      -1.56052698       0.16945439       0.06487911      -1.56052698     -13.75197544
H        0.80661457      -2.74794078      -0.44492522        0       0.16081350      -0.27483373      -0.29843749      -1.06735544       0.38987326       0.66982536      -1.06735544       0.38987326       0.66982536     -13.53942752
H       -0.23497132      -1.41865759      -1.59492750        0      -0.30679767      -0.45051348      -0.27631602      -1.31986726       1.18093640      -0.98586602      -1.31986726       1.18093640      -0.98586602     -14.29865114
12
Properties=species:S:1:pos:R:3:molID:I:1:momenta:R:3:force_mace:R:3:forces:R:3:energies:R:1 Nmols=1 Comp=DMC(1) energy_mace=-588.2551571510172 energy=-588.2551571510172 stress="8.729294555805161e-06 -7.637281430827632e-06 2.9289526872847896e-07 -7.637281430827632e-06 9.908420184489739e-06 1.2477759190551234e-06 2.9289526872847896e-07 1.2477759190551234e-06 8.849652372494382e-06" free_energy=-588.2551571510172 pbc="F F F"
C        0.17188389       0.11321870       0.07974609        0      -0.52073046      -0.45337012       1.91025796       0.45657007      -2.49312938      -1.49932965       0.45657007      -2.49312938      -1.49932965     -58.97662890
O        1.28148937      -0.11873149       0.49639982        0       0.19441911      -1.54622922       1.61623587      -2.04772809       1.53057959      -0.36313845      -2.04772809       1.53057959      -0.36313845    -109.92697248
O       -0.72561559       1.10245245      -0.00255924        0      -0.22632873       1.47905132      -0.81635996       2.19578852      -0.80201659       2.00464710       2.19578852      -0.80201659       2.00464710    -110.22899351
O       -0.46622845      -1.01092051      -0.59731845        0       1.84924354       1.39624369      -0.79133828       0.29461227      -0.49328469      -1.31641257       0.29461227      -0.49328469      -1.31641257    -110.29080756
C       -0.49731925       2.04635157       1.18707776        0      -0.59771613       0.02470379      -1.97018365      -0.63215224      -2.35615794      -2.00707450      -0.63215224      -2.35615794      -2.00707450     -57.85363451
C        0.18925702      -2.09010188      -1.12506969        0      -0.34004472      -0.15816028       0.39798334      -0.75485503      -0.72615034       0.66393710      -0.75485503      -0.72615034       0.66393710     -57.26558455
H        0.30466757       1.58273006       1.70311996        0      -0.13627780      -0.39823621      -0.52580776       1.50280268       0.62237765       0.55828231       1.50280268       0.62237765       0.55828231     -13.87323987
H       -0.30373268       2.92200933       0.60945209        0       0.33235139      -0.25057284       0.37529684      -0.20173738       1.08104413       0.92034744      -0.20173738       1.08104413       0.92034744     -14.06885504
H       -1.30578276       1.77155543       1.84788808        0      -0.07001146       0.13581814      -0.66949803      -0.94522469       1.15610585      -0.02599822      -0.94522469       1.15610585      -0.02599822     -13.97519666
H        0.96586399      -2.85133643      -1.41028009        0      -0.02506647       0.24696275      -0.05561924      -1.48255818       2.06342530       1.98104445      -1.48255818       2.06342530       1.98104445     -13.77413676
H        0.57943434      -2.88337007      -0.51230310        0      -0.32639924      -0.16743031      -0.24983534       0.56285870       0.20186059      -1.69297453       0.56285870       0.20186059      -1.69297453     -13.81214202
H       -0.71870995      -1.64958833      -1.49372365        0      -0.13343904      -0.30878070       0.77886825       1.05162337       0.21534584       0.77666951       1.05162337       0.21534584       0.77666951     -14.20896530
12
Properties=species:S:1:pos:R:3:molID:I:1:momenta:R:3:force_mace:R:3:forces:R:3:energies:R:1 Nmols=1 Comp=DMC(1) energy_mace=-588.4595679490376 energy=-588.4595679490376 stress="4.83654336097038e-06 -9.177346453910374e-06 -3.5334323878667754e-06 -9.177346453910374e-06 3.5762574072924e-06 -3.7279852446505535e-06 -3.5334323878667754e-06 -3.7279852446505535e-06 -6.134928733059795e-06" free_energy=-588.4595679490376 pbc="F F F"
C        0.14594515       0.00128613       0.11330268        0       0.01875564      -1.74261320      -0.61294082       0.43732865       1.60002084      -1.02089360       0.43732865       1.60002084      -1.02089360     -59.08135749
O        1.22189662      -0.15895059       0.57621166        0      -1.60283122      -0.45420157       1.73605705       0.42522865       0.84817803       1.13562238       0.42522865       0.84817803       1.13562238    -109.92883603
O       -0.66844185       1.13827689       0.01250752        0       1.97443352      -0.87446719       0.91987977       1.30755579      -3.24236747      -1.06766175       1.30755579      -3.24236747      -1.06766175    -110.51856745
O       -0.37974961      -0.93347694      -0.64325432        0       0.55605951       1.70359839      -0.99539570      -1.28940947      -0.50991655      -0.78123775      -1.28940947      -0.50991655      -0.78123775    -110.40364708
C       -0.50199291       1.97609690       1.02844870        0       0.78877422       0.03835132      -1.38966297       0.70827261       4.91480551       2.66408449       0.70827261       4.91480551       2.66408449     -58.05805526
C        0.12279891      -2.08847530      -1.06634859        0      -0.94689292      -0.22809824       0.80594749      -0.32623976      -0.72733604       1.19666971      -0.32623976      -0.72733604       1.19666971     -57.24181074
H        0.35547861       1.73806169       1.72165341        0      -0.37198437       0.46442166       0.36000656      -1.31014895      -0.83232614      -0.05264879      -1.31014895      -0.83232614      -0.05264879     -13.84071717
H       -0.14378239       3.06089366       0.81326212        0      -0.22032330      -0.30940074      -0.09229956      -0.26062039      -1.17939264      -1.01468349      -0.26062039      -1.17939264      -1.01468349     -13.68491523
H       -1.50959967       2.28345215       1.43116198        0       0.19643577       0.67469422      -0.38144724       0.90091375      -1.12000273       0.39172520       0.90091375      -1.12000273       0.39172520     -13.83714986
H        1.04106892      -2.57292068      -1.36235048        0      -0.10477814       0.35388445       0.11511706      -0.80145607       0.94048722       0.01591907      -0.80145607       0.94048722       0.01591907     -13.82256652
H        0.44213087      -3.08492097      -0.94242459        0       0.12926778       0.37064829      -0.67501034       0.27927561       0.64339079       0.08314621       0.27927561       0.64339079       0.08314621     -13.82649819
H       -0.82519024      -1.63594791      -0.84450163        0      -0.41691648       0.00318259       0.20974871      -0.07070042      -1.33554082      -1.55004169      -0.07070042      -1.33554082      -1.55004169     -14.21544692
12
Properties=species:S:1:pos:R:3:molID:I:1:momenta:R:3:force_mace:R:3:forces:R:3:energies:R:1 Nmols=1 Comp=DMC(1) energy_mace=-588.4499164812534 energy=-588.4499164812534 stress="-1.0027996497379183e-05 6.157223530171026e-06 -7.563434109405794e-06 6.157223530171026e-06 -9.37497444787553e-06 -3.4313769548019334e-06 -7.563434109405794e-06 -3.4313769548019334e-06 5.015905896428902e-06" free_energy=-588.4499164812534 pbc="F F F"
C        0.16919125      -0.04264883       0.09003416        0       0.33323561       0.34735452      -0.18271264       0.81478496      -0.39322688       0.28060790       0.81478496      -0.39322688       0.28060790     -59.22906538
O        1.14428176      -0.16885227       0.72327995        0      -0.44659070      -0.28097228       3.56621866       2.21494195      -1.06634142       1.33542416       2.21494195      -1.06634142       1.33542416    -109.89794550
O       -0.53381508       1.00587043       0.03091854        0       1.65156333      -2.58037660       0.01353072      -3.03936230       3.22176735       0.43617318      -3.03936230       3.22176735       0.43617318    -110.25173818
O       -0.40380830      -0.90583285      -0.74550596        0      -1.61141552      -0.36018801      -2.41639317      -1.23653884       0.37134085      -0.38447032      -1.23653884       0.37134085      -0.38447032    -110.42229855
C       -0.48384365       2.11825065       0.98384608        0      -0.03789899       2.85193780      -0.70274767       0.15758505       0.88840422      -1.76125468       0.15758505       0.88840422      -1.76125468     -58.00178735
C        0.04458291      -2.10565476      -0.98108588        0       0.10206552      -0.21939317       1.20578364       2.44713666       0.36124592      -0.56682089       2.44713666       0.36124592      -0.56682089     -57.15066481
H       -0.06816406       1.85575168       1.98917825        0      -0.12951262      -0.15316384      -0.12038184       0.48950408       0.15285939      -1.27744016       0.48950408       0.15285939      -1.27744016     -14.02877292
H       -0.04483592       2.93801472       0.24154005        0       0.30409828      -0.33127853      -0.33595291      -0.42197275      -1.26452422       2.44741997      -0.42197275      -1.26452422       2.44741997     -13.76100966
H       -1.52402747       2.43535842       1.20795345        0      -0.31371438      -0.07937887      -0.35256996       0.38521226      -0.30026812      -0.47935389       0.38521226      -0.30026812      -0.47935389     -13.95314165
H        1.08077983      -2.17851718      -1.34558888        0      -0.16942475      -0.11333085       0.13335334      -0.04472427       0.04796125       0.48613492      -0.04472427       0.04796125       0.48613492     -13.58880591
H        0.61456561      -2.80258781      -1.45114092        0       0.28495880       0.95931497      -0.35965374      -0.49799401      -1.14401125      -0.19756018      -0.49799401      -1.14401125      -0.19756018     -13.83888785
H       -0.81053614      -1.62135224      -1.03883348        0       0.03263543      -0.04052512      -0.44847444      -1.26857280      -0.87520708      -0.31886001      -1.26857280      -0.87520708      -0.31886001     -14.32579872
12
Properties=species:S:1:pos:R:3:molID:I:1:momenta:R:3:force_mace:R:3:forces:R:3:energies:R:1 Nmols=1 Comp=DMC(1) energy_mace=-587.8039666333901 energy=-587.8039666333901 stress="1.203397886536493e-05 4.287258356541565e-06 3.832174669002886e-06 4.287258356541565e-06 4.955805021564997e-06 5.350117092308835e-06 3.832174669002886e-06 5.350117092308835e-06 1.1520102144742817e-05" free_energy=-587.8039666333901 pbc="F F F"
C        0.27043148      -0.05477914       0.11845442        0       1.27382614      -0.18371087       0.89299717      -1.89845984       1.49580695       0.82135434      -1.89845984       1.49580695       0.82135434     -58.87967404
O        1.14121600      -0.21358805       0.92279813        0      -0.46773919      -1.32960105       2.19028029      -0.70061852      -0.74219951      -1.65466637      -0.70061852      -0.74219951      -1.65466637    -109.93704838
O       -0.54551471       0.98965933       0.03299821        0      -1.37268082       0.92618757       0.08195103      -0.30099761       0.71705685      -0.21893373      -0.30099761       0.71705685      -0.21893373    -110.17298997
O       -0.51067938      -0.93007405      -0.89921386        0      -1.10475859      -0.63595294      -2.00566875       2.79660622       1.68611491       2.61705545       2.79660622       1.68611491       2.61705545    -110.28317047
C       -0.51619157       2.23115802       0.88875385        0       0.28688672       0.44791379      -1.74080203       2.94437470      -1.42016007      -1.35468044       2.94437470      -1.42016007      -1.35468044     -58.00147216
C        0.08021579      -2.11217804      -0.94415334        0       1.39822558      -0.11751873      -0.58755916       2.46009902      -0.21311222      -2.78516470       2.46009902      -0.21311222      -2.78516470     -57.15788312
H        0.04409140       1.93869261       1.78113192        0       0.06768302       0.30763392       0.06586492      -1.05818491      -0.29431639       0.64027075      -1.05818491      -0.29431639       0.64027075     -13.90152280
H        0.37535216       2.88959061       0.46658665        0       0.14332891       0.29722833       0.32262176      -2.40583780      -0.52577336      -0.07306834      -2.40583780      -0.52577336      -0.07306834     -13.78971127
H       -1.58559920       2.47739845       0.91024950        0      -0.03817342       0.41621504      -0.29562171       1.09302898       0.43334230       0.19155333       1.09302898       0.43334230       0.19155333     -14.09926277
H        1.11068265      -2.21320569      -0.85370965        0      -0.11120255      -0.07405066       0.62598316      -0.66174529      -0.77028077      -1.10109964      -0.66174529      -0.77028077      -1.10109964     -13.70385018
H        0.77095386      -2.40862291      -1.82653911        0       0.03135053       0.35032362       0.29441177      -0.02450903       0.29063466       2.83826177      -0.02450903       0.29063466       2.83826177     -13.49416441
H       -0.74473052      -1.79418819      -1.20360574        0      -0.10674634      -0.40466801       0.15554154      -2.24375592      -0.65711335       0.07911758      -2.24375592      -0.65711335       0.07911758     -14.38321706
12
Properties=species:S:1:pos:R:3:molID:I:1:momenta:R:3:force_mace:R:3:forces:R:3:energies:R:1 Nmols=1 Comp=DMC(1) energy_mace=-587.7051536591998 energy=-587.7051536591998 stress="1.5020729999636969e-05 -1.381990242320025e-07 3.886387691649104e-06 -1.381990242320025e-07 1.1080210329889341e-05 6.59476713589894e-07 3.886387691649104e-06 6.59476713589894e-07 1.2056606779309358e-05" free_energy=-587.7051536591998 pbc="F F F"
C        0.24817966      -0.01646737       0.18530141        0      -1.45215599       1.19888732       0.68034525      -1.29858742       0.06361835       0.47403909      -1.29858742       0.06361835       0.47403909     -58.70568957
O        1.08156208      -0.28883242       1.00811657        0      -1.90592047      -0.67994950       0.18153491      -1.62364533       0.33418939      -2.27679251      -1.62364533       0.33418939      -2.27679251    -109.93286648
O       -0.58033493       1.01938819       0.02310312        0       0.15223941      -0.31926747       0.02985864       1.16362748      -0.42980049      -0.14518358       1.16362748      -0.42980049      -0.14518358    -110.46115517
O       -0.49739472      -0.96222677      -0.93113343        0       1.42282558       0.12931968       0.94733432       1.59449264       0.94737689       2.55000722       1.59449264       0.94737689       2.55000722    -110.47226493
C       -0.43806672       2.22670171       0.75682587        0       0.90593630      -0.15664422      -1.16208067      -0.56850545       1.70409767       0.83488574      -0.56850545       1.70409767       0.83488574     -58.05977450
C        0.12777786      -2.06452766      -1.02901822        0       0.76291406       0.34058214      -0.51538885       3.96229595      -2.27103563       1.50915934       3.96229595      -2.27103563       1.50915934     -57.45928649
H       -0.34372137       2.08489159       1.86666165        0      -0.44171814      -0.32296659      -0.21953129       0.86103884      -0.25350899      -1.12249420       0.86103884      -0.25350899      -1.12249420     -13.98993092
H        0.16292062       3.08481790       0.31198682        0       0.20615299       0.08541160      -0.64811897       0.58968771      -1.89475619       0.47432158       0.58968771      -1.89475619       0.47432158     -13.90710697
H       -1.36932833       2.78101842       0.70671576        0      -0.21209745       0.10685050      -0.17677082      -0.99769151      -0.54549403      -0.27579673      -0.99769151      -0.54549403      -0.27579673     -13.79083546
H        1.07437502      -2.42481081      -0.50138450        0      -0.09617625      -0.21779985      -0.17080803      -0.85246246       0.52461260      -0.92718943      -0.85246246       0.52461260      -0.92718943     -13.67151628
H        1.37787990      -2.24606000      -1.32696749        0       0.21619321      -0.01987218       0.70239795      -3.60424623       0.65227493       0.34143450      -3.60424623       0.65227493       0.34143450     -13.23544477
H       -0.88253879      -2.09667855      -0.73981152        0       0.44180675      -0.14455142       0.35122757       0.77399579       1.16842551      -1.43639103       0.77399579       1.16842551      -1.43639103     -14.01928212
12
Properties=species:S:1:pos:R:3:molID:I:1:momenta:R:3:force_mace:R:3:forces:R:3:energies:R:1 Nmols=1 Comp=DMC(1) energy_mace=-588.3865989292217 energy=-588.3865989292217 stress="-5.267172946387092e-06 2.2535076113618778e-06 -4.406791926578275e-06 2.2535076113618778e-06 -7.33060775428376e-06 -3.1794892097038115e-06 -4.406791926578275e-06 -3.1794892097038115e-06 -2.398003632844744e-06" free_energy=-588.3865989292217 pbc="F F F"
C        0.11179978       0.02643586       0.22320644        0      -1.77283896      -0.73860817       0.02950755      -0.44411465      -3.50891978      -2.02837570      -0.44411465      -3.50891978      -2.02837570     -58.93017942
O        0.91759402      -0.30189716       0.97816596        0      -3.00141262      -0.41435446      -0.65102413       2.35439588      -0.45128331       2.24068730       2.35439588      -0.45128331       2.24068730    -110.09895663
O       -0.59479318       1.00538372      -0.00249059        0      -1.13254048       0.22388519      -1.21442711      -3.21061641       1.59336310      -1.95845577      -3.21061641       1.59336310      -1.95845577    -110.51064534
O       -0.38169684      -0.93691075      -0.79797366        0       2.22371965       0.44360516       3.00352929       0.30033164      -0.13374408       0.72826419       0.30033164      -0.13374408       0.72826419    -110.25837575
C       -0.43389120       2.27109907       0.63236885        0      -0.30683547      -0.34499123      -1.86509210       2.27208674      -3.42697526       1.44516732       2.27208674      -3.42697526       1.44516732     -57.96243297
C        0.29522919      -2.07299916      -0.97550485        0       2.41673893       0.46750275       1.37349319       0.10006516       0.02566528       1.40324476       0.10006516       0.02566528       1.40324476     -57.48093147
H       -0.22850220       1.86941773       1.66956752        0       0.40919060       0.21922667      -0.12801292      -0.41408504       1.72348290      -0.39554828      -0.41408504       1.72348290      -0.39554828     -13.72232229
H        0.48714141       2.50902536       0.15237263        0       0.58434558      -0.38031043       0.44827210       0.58230244       1.80865482       0.17303675       0.58230244       1.80865482       0.17303675     -13.76433781
H       -1.31936895       2.72131013       0.36443970        0       0.09249371       0.09729298      -0.32542955      -1.43237241       1.78151566       0.09358018      -1.43237241       1.78151566       0.09358018     -13.96799338
H        1.08286618      -2.79851799      -0.57460099        0       0.03329586      -0.20817614       0.11610373      -1.24669489       2.75838631      -1.49128855      -1.24669489       2.75838631      -1.49128855     -13.66983345
H        1.32158955      -2.07859225      -1.20617970        0       0.68578204       0.00250059      -0.34698238      -0.30258608      -1.71617112       0.38747896      -0.30258608      -1.71617112       0.38747896     -13.74657711
H       -0.80358873      -1.81490615      -0.92685567        0      -0.23193883       0.63242709      -0.43993768       1.44128760      -0.45397451      -0.59779117       1.44128760      -0.45397451      -0.59779117     -14.27401331
12
Properties=species:S:1:pos:R:3:molID:I:1:momenta:R:3:force_mace:R:3:forces:R:3:energies:R:1 Nmols=1 Comp=DMC(1) energy_mace=-587.7937684786574 energy=-587.7937684786574 stress="-3.1540782991538023e-06 -5.774770781348319e-06 -1.9860767834429695e-06 -5.774770781348319e-06 -4.092321362704117e-06 -1.325866348004429e-05 -1.9860767834429695e-06 -1.325866348004429e-05 -3.891395635997317e-06" free_energy=-587.7937684786574 pbc="F F F"
C       -0.03786069      -0.11365953       0.17383096        0      -0.10410460      -0.71110409       0.73107911       3.62568203       6.18198111       6.60055341       3.62568203       6.18198111       6.60055341     -59.11880422
O        0.82710883      -0.29796417       1.02513991        0      -1.42358600       0.21991037       1.14564015      -1.77039048       1.43467162      -0.66218326      -1.77039048       1.43467162      -0.66218326    -109.60485625
O       -0.72087647       1.06261443      -0.12632405        0      -3.03876618       1.19888568      -1.92064042       0.46176239      -2.25909500       0.75459134       0.46176239      -2.25909500       0.75459134    -110.42311732
O       -0.26272857      -0.93773602      -0.65695236        0       0.45055231      -1.76818873      -0.06057254      -2.66677045      -4.93433255      -6.16318841      -2.66677045      -4.93433255      -6.16318841    -110.37739304
C       -0.37686960       2.19868767       0.52863896        0       1.44597018       0.26918443      -1.03929702       1.40562469       2.58770172       3.34365965       1.40562469       2.58770172       3.34365965     -58.06657422
C        0.45549066      -1.99594261      -0.87682327        0       2.12792336       0.70131896       1.12444201       4.14655567      -4.33814104       0.86292386       4.14655567      -4.33814104       0.86292386     -56.94948203
H       -0.37301501       2.31829750       1.72108409        0      -0.46223320       0.08931636       0.11197682       0.01170198      -1.61027161      -2.19996651       0.01170198      -1.61027161      -2.19996651     -13.74145638
H        0.57236361       2.68284014       0.26127457        0      -0.37701655       0.08041313      -0.20155475       0.51384979      -0.89085072      -0.21809197       0.51384979      -0.89085072      -0.21809197     -13.92165866
H       -1.02580145       2.99925339       0.32279450        0       0.60898186       0.22182660       0.11243430      -1.65393944       0.60572426      -0.87864555      -1.65393944       0.60572426      -0.87864555     -13.84692593
H        1.08081504      -2.93556659      -0.54861659        0      -0.09417777      -0.16933811       0.35024230      -1.87184614       3.31811413      -1.48166772      -1.87184614       3.31811413      -1.48166772     -13.62405054
H        1.27928698      -2.41912844      -1.34045630        0      -0.04998317      -0.23143005      -0.24818555       0.55109018      -0.66911036       1.02865366       0.55109018      -0.66911036       1.02865366     -13.81131161
H       -0.29803169      -1.60790232      -1.26804584        0       0.91643975       0.09920545      -0.10556440      -2.75332022       0.57360844      -0.98663851      -2.75332022       0.57360844      -0.98663851     -14.30813829
12
Properties=species:S:1:pos:R:3:molID:I:1:momenta:R:3:force_mace:R:3:forces:R:3:energies:R:1 Nmols=1 Comp=DMC(1) energy_mace=-587.9617191053794 energy=-587.9617191053794 stress="1.2642510258848636e-05 -5.64600036992934e-06 5.876273622555318e-06 -5.64600036992934e-06 1.7718208070868954e-05 -4.97580039453899e-06 5.876273622555318e-06 -4.97580039453899e-06 1.2400769848691589e-05" free_energy=-587.9617191053794 pbc="F F F"
C       -0.03956374      -0.02311088       0.26474387        0      -1.14480212       1.35026462      -0.42306716      -2.67661015      -0.50277958      -3.79616611      -2.67661015      -0.50277958      -3.79616611     -58.75660574
O        0.73230408      -0.23753011       1.13313773        0      -1.29012144       1.49767033       2.25719865      -0.66235955       0.99418237      -0.42180119      -0.66235955       0.99418237      -0.42180119    -110.13486929
O       -0.87427106       1.07988702      -0.19092210        0      -0.90575300      -0.45186834       0.00350594       4.20925102      -1.64852995       2.73804741       4.20925102      -1.64852995       2.73804741    -109.91778409
O       -0.26657081      -1.11901521      -0.75584041        0       0.41365165      -2.71184708      -1.06295078       0.53842341       2.19080215       2.68960363       0.53842341       2.19080215       2.68960363    -110.41801891
C       -0.31141223       2.30985831       0.47853630        0       0.45630912       2.24276759      -1.51850589       0.52262562      -3.31230759       0.91384536       0.52262562      -3.31230759       0.91384536     -58.04020202
C        0.69128159      -1.99192130      -0.86121914        0       2.51558386       0.33638848      -0.37482736      -1.19786217      -2.14436253       0.50743582      -1.19786217      -2.14436253       0.50743582     -57.18156783
H       -0.41303938       1.96505848       1.61523425        0       0.10848508      -0.57575848       0.23204982       0.32139069       1.62186233      -2.13024589       0.32139069       1.62186233      -2.13024589     -13.78881965
H        0.80845485       2.36447105       0.19585447        0      -0.23933006      -0.93491107       0.18536682      -1.82415120       0.21234035       0.49477904      -1.82415120       0.21234035       0.49477904     -13.96085775
H       -0.92114112       3.09833830       0.09686023        0      -0.17535185      -0.17273685      -0.32916968      -0.06649056       0.47396733       0.31083157      -0.06649056       0.47396733       0.31083157     -14.13709650
H        0.96351180      -2.96711307      -0.17143717        0      -0.12276863      -0.07515839       0.46176256      -0.74583125       2.26029844      -1.08217403      -0.74583125       2.26029844      -1.08217403     -13.45614450
H        1.36261465      -2.77315566      -0.91767147        0      -0.01486197      -0.15782789       0.79924207       0.42466059       0.48924900       0.00024978       0.42466059       0.48924900       0.00024978     -13.88683342
H       -0.07128472      -1.55054009      -1.50531863        0       0.39895936      -0.34698291      -0.23060500       1.15695353      -0.63472234      -0.22440540       1.15695353      -0.63472234      -0.22440540     -14.28291940
12
Properties=species:S:1:pos:R:3:molID:I:1:momenta:R:3:force_mace:R:3:forces:R:3:energies:R:1 Nmols=1 Comp=DMC(1) energy_mace=-588.135160953156 energy=-588.135160953156 stress="8.276133322632882e-06 -1.92543181203632e-06 1.0785446376982757e-06 -1.92543181203632e-06 8.334664767378546e-06 8.015371948606513e-06 1.0785446376982757e-06 8.015371948606513e-06 1.0950462063180586e-05" free_energy=-588.135160953156 pbc="F F F"
C       -0.18923151       0.00446988       0.19857706        0      -0.94620759      -1.00953256      -0.03037064       2.87046699      -2.72459595       1.59653197       2.87046699      -2.72459595       1.59653197     -59.04975390
O        0.57466890      -0.09060794       1.16830665        0      -4.13564666       2.92829746      -1.69873744      -2.05904820      -0.03861957      -3.02427599      -2.05904820      -0.03861957      -3.02427599    -109.84141756
O       -0.88528116       1.02268585      -0.14148664        0      -0.04711691      -1.03254471       1.29888536      -0.18594008       2.04243625       0.09040026      -0.18594008       2.04243625       0.09040026    -110.35081806
O       -0.21725051      -1.24400044      -0.78591298        0       1.47591561      -1.25328289      -0.39304063       1.68718959       1.26892612      -0.72120827       1.68718959       1.26892612      -0.72120827    -110.24741827
C       -0.26686207       2.33239360       0.39359154        0       0.65190744      -1.37677192      -1.68293347       0.00049649      -2.81341880      -0.32786390       0.00049649      -2.81341880      -0.32786390     -57.87143656
C        0.88363778      -2.02857372      -0.81450906        0       2.15083455      -0.64709517       1.47381585      -2.52297615       1.07452887       0.19610704      -2.52297615       1.07452887       0.19610704     -57.37123631
H       -0.31806440       2.22164177       1.48523776        0      -0.19996734       0.65023873       0.65614174      -0.31777832       0.45550972      -0.30105347      -0.31777832       0.45550972      -0.30105347     -13.97272903
H        0.80572808       2.12573770       0.14822910        0       0.08386856       0.76965994      -0.28073591      -0.82623568       1.14100899      -0.11667714      -0.82623568       1.14100899      -0.11667714     -13.89058730
H       -0.88742936       3.10571133      -0.07374094        0       0.37211302       0.27361114      -0.11749915       0.78324985      -0.22375976       0.31047142       0.78324985      -0.22375976       0.31047142     -14.13371073
H        0.88882689      -2.52820213       0.09630133        0       0.20101604       0.00754410       0.73860335       1.10544764      -1.41252872       0.70573504       1.10544764      -1.41252872       0.70573504     -13.55041316
H        1.60557248      -2.65522468      -0.36014716        0       0.21794306       0.50339821       0.28315728       0.08185751       0.59172885       0.02843687       0.08185751       0.59172885       0.02843687     -13.90745759
H        0.45178312      -1.74863716      -1.71574661        0       0.17534022       0.18647768      -0.24728633      -0.61672963       0.63878400       1.56339618      -0.61672963       0.63878400       1.56339618     -13.94818250
12
Properties=species:S:1:pos:R:3:molID:I:1:momenta:R:3:force_mace:R:3:forces:R:3:energies:R:1 Nmols=1 Comp=DMC(1) energy_mace=-587.9929828352973 energy=-587.9929828352973 stress="-1.8150438606867121e-06 4.82098827602337e-06 -2.2808675677166918e-06 4.82098827602337e-06 7.397848912806737e-06 6.889111710120888e-06 -2.2808675677166918e-06 6.889111710120888e-06 -8.204201696445347e-06" free_energy=-587.9929828352973 pbc="F F F"
C       -0.22831013      -0.14882593       0.11057957        0      -0.56189855      -2.02448744      -3.04710084      -0.06419290       1.72652769      -0.92589384      -0.06419290       1.72652769      -0.92589384     -58.93249634
O        0.37931062       0.04024138       1.10691744        0      -0.98226050       0.89479674       0.77956412       2.32353888      -3.63952155       1.69520729       2.32353888      -3.63952155       1.69520729    -109.61478430
O       -0.88323390       1.07001312      -0.08399672        0      -0.67595431       1.55689787       0.44244890      -1.10420456      -0.16600721      -2.09965118      -1.10420456      -0.16600721      -2.09965118    -109.89574049
O       -0.11576350      -1.28300046      -0.79724665        0       1.61180389       0.54428203       0.35136962      -0.92703349       2.81127530       2.91301868      -0.92703349       2.81127530       2.91301868    -110.47168582
C       -0.22003051       2.23519979       0.33311459        0       0.52109497      -0.93929673      -0.94422959      -0.22001921       2.15278115      -4.47759795      -0.22001921       2.15278115      -4.47759795     -58.15169453
C        0.94202490      -2.06510454      -0.66321333        0       0.11655281      -0.13730561       2.66909672       0.60013381       0.84837198       1.69682574       0.60013381       0.84837198       1.69682574     -57.50711272
H       -0.33747626       2.57901095       1.25766149        0       0.16809019       0.11467608       0.21275126      -0.25193701       0.04508546       4.31881455      -0.25193701       0.04508546       4.31881455     -13.84450915
H        0.81300702       2.45620549       0.00346027        0      -0.03615947      -0.48998608       0.03417576      -0.09160667      -1.29787941       0.11798018      -0.09160667      -1.29787941       0.11798018     -13.95552235
H       -0.73231068       3.12857768      -0.11141536        0      -0.19264795      -0.19375059      -0.19305135      -0.22925471      -0.90227799      -0.45761876      -0.22925471      -0.90227799      -0.45761876     -13.69955137
H        1.19307092      -2.63403064       0.19054681        0       0.14023112       0.10783369      -0.48623972       0.19804723      -0.37901839      -0.51756805       0.19804723      -0.37901839      -0.51756805     -13.79693419
H        1.87782963      -2.12309424      -0.08816815        0       0.08731424       0.68139597       0.11792924      -1.27546206       0.16673308      -0.76587328      -1.27546206       0.16673308      -0.76587328     -13.77258605
H        0.39335840      -1.62014927      -1.43942859        0      -0.19616644      -0.11505593       0.06328588       1.04199068      -1.36607011      -1.49764337       1.04199068      -1.36607011      -1.49764337     -14.35036553
12
Properties=species:S:1:pos:R:3:molID:I:1:momenta:R:3:force_mace:R:3:forces:R:3:energies:R:1 Nmols=1 Comp=DMC(1) energy_mace=-587.9554310216159 energy=-587.9554310216159 stress="-3.7769851593807693e-06 -4.812280828300651e-06 -5.384078810040106e-07 -4.812280828300651e-06 -1.1526537471564875e-06 4.41190311546096e-06 -5.384078810040106e-07 4.41190311546096e-06 -7.749019057206293e-06" free_energy=-587.9554310216159 pbc="F F F"
C       -0.23616881      -0.14446673       0.03329399        0       0.85189447       2.32978824       1.71297953       0.07339869       2.58886662       2.21070464       0.07339869       2.58886662       2.21070464     -59.01663087
O        0.32359321      -0.03093739       1.10300711        0      -1.04491091      -2.60389752      -1.02205960       0.68050632      -2.41242422      -0.15869508       0.68050632      -2.41242422      -0.15869508    -109.73017835
O       -0.95075436       1.13475680      -0.12922547        0      -2.04602423      -0.10457523      -2.28240657      -1.33960703      -2.87700557      -1.89507107      -1.33960703      -2.87700557      -1.89507107    -109.88259355
O       -0.03105165      -1.22886494      -0.76584102        0       1.52349478       0.66080423      -0.23603127      -0.96583399      -0.62867017      -0.90186567      -0.96583399      -0.62867017      -0.90186567    -110.52230616
C       -0.19536109       2.23923590       0.27159525        0       0.39141442       0.61579025      -0.75686947      -0.33255195      -1.93145304      -4.68449623      -0.33255195      -1.93145304      -4.68449623     -58.27706940
C        0.96210417      -2.01762068      -0.49403082        0       0.47142116       0.39689396       2.12725583       0.65438421      -0.36347283       0.74617394       0.65438421      -0.36347283       0.74617394     -57.39671054
H       -0.23715130       2.22272292       1.25788006        0       0.03734418      -0.61801241      -0.58989453      -0.41831350       1.37395069       4.25449670      -0.41831350       1.37395069       4.25449670     -13.79526214
H        0.76726152       1.81842207       0.01000247        0      -0.24850179      -0.22441031      -0.20596302       1.05618284       1.84899980      -0.46925584       1.05618284       1.84899980      -0.46925584     -13.61426963
H       -0.72220099       2.89487577      -0.41482606        0       0.26101100      -0.07775820      -0.03429522       0.94963227       1.10206704       0.93659608       0.94963227       1.10206704       0.93659608     -13.76191550
H        1.56157124      -2.69927818       0.03711892        0       0.17074594       0.38220972      -0.22400886      -0.36584991       0.11527580       0.08671703      -0.36584991       0.11527580       0.08671703     -13.83967274
H        1.76431962      -1.86491105       0.20555027        0       0.09501980      -0.46638970       0.79337704      -0.04497278       0.10170817      -0.44955154      -0.04497278       0.10170817      -0.44955154     -13.72469559
H        0.21058586      -2.01236042      -1.23246732        0      -0.46290882      -0.29044301       0.71791613       0.05302482       1.08215771       0.32424703       0.05302482       1.08215771       0.32424703     -14.39412655
12
Properties=species:S:1:pos:R:3:molID:I:1:momenta:R:3:force_mace:R:3:forces:R:3:energies:R:1 Nmols=1 Comp=DMC(1) energy_mace=-587.9443637667464 energy=-587.9443637667464 stress="9.030684759678933e-06 -3.2729282748901955e-06 6.846546685652474e-07 -3.2729282748901955e-06 1.1731168320210771e-05 -5.429713419188177e-06 6.846546685652474e-07 -5.429713419188177e-06 -2.6251100967006956e-06" free_energy=-587.9443637667464 pbc="F F F"
C       -0.26368718       0.05383642       0.04125641        0      -1.26491579       2.04917179      -1.72061151       1.29217471      -3.70924690       2.21156377       1.29217471      -3.70924690       2.21156377     -59.01950885
O        0.31225244      -0.18139206       1.11703194        0       0.07436113      -1.46999786       1.06251524      -1.89487752       3.01202987      -1.36165425      -1.89487752       3.01202987      -1.36165425    -109.67423573
O       -1.04315474       1.07552574      -0.28926574        0       0.37122397      -1.24459566      -2.15811466       3.10147145       1.28850261       0.67072492       3.10147145       1.28850261       0.67072492    -110.39563138
O        0.05084586      -1.17603725      -0.76249867        0       1.48208575       0.66507158      -0.13227778       0.52049610      -1.19696905      -0.92726953       0.52049610      -1.19696905      -0.92726953    -110.24954438
C       -0.18969434       2.21099918       0.16848313        0      -0.55702442      -0.26458568      -0.50897546      -1.00776119       1.85621442      -0.01570456      -1.00776119       1.85621442      -0.01570456     -57.86432189
C        1.00104961      -2.03327477      -0.27984478        0      -0.27642559      -0.68384817       2.42406203      -6.05229194      -0.22713709      -3.50533414      -6.05229194      -0.22713709      -3.50533414     -57.33537569
H       -0.24423407       2.17667350       1.26076156        0      -0.00062213       0.31553987      -0.58458847       0.24239835      -0.03079208      -0.10177012       0.24239835      -0.03079208      -0.10177012     -13.94074977
H        0.85193658       2.14292047      -0.17250816        0      -0.02544659       0.29127448      -0.01782994      -0.40659576      -0.59436970       0.04530701      -0.40659576      -0.59436970       0.04530701     -13.96546521
H       -0.46134844       3.31947638      -0.10811987        0       0.14961943      -0.24634933       0.89311949      -0.46879566      -2.42462859      -0.01162983      -0.46879566      -2.42462859      -0.01162983     -13.87635953
H        1.95105632      -2.44089136      -0.17580619        0       0.24198036       0.71383030      -0.17774383      -0.46716227       0.98431644      -0.14079919      -0.46716227       0.98431644      -0.14079919     -13.92640198
H        1.50568969      -1.91649667       0.49057950        0      -0.21810853      -0.02661337       0.08415175       3.58318442      -0.18530535       3.32891465       3.58318442      -0.18530535       3.32891465     -13.59439679
H       -0.06937841      -2.23256460      -0.56130611        0       0.02327241      -0.09889797       0.83629314       1.55775930       1.22738539      -0.19234873       1.55775930       1.22738539      -0.19234873     -14.10237254
12
Properties=species:S:1:pos:R:3:molID:I:1:momenta:R:3:force_mace:R:3:forces:R:3:energies:R:1 Nmols=1 Comp=DMC(1) energy_mace=-587.7858017441736 energy=-587.7858017441736 stress="2.6311599021214848e-06 -3.7291474289998475e-06 9.758921642128875e-07 -3.7291474289998475e-06 6.138965030105589e-06 -2.3249497445303036e-06 9.758921642128875e-07 -2.3249497445303036e-06 -1.2766068196908856e-06" free_energy=-587.7858017441736 pbc="F F F"
C       -0.25811766       0.01583325       0.05634384        0       1.21451618      -2.80810259       0.79817129      -0.26082363      -1.65196375      -1.44481347      -0.26082363      -1.65196375      -1.44481347     -58.86750318
O        0.22962214      -0.16343640       1.13573806        0      -2.55383122       1.91394285      -0.36574474      -1.08714987       2.16681855       0.84801004      -1.08714987       2.16681855       0.84801004    -109.98087836
O       -0.99743716       1.09204091      -0.39328530        0       1.34446897       1.72538294      -0.87970080       2.60270981      -1.68362278       1.83368107       2.60270981      -1.68362278       1.83368107    -110.39336915
O        0.16200756      -1.17445287      -0.79234354        0       1.22891065      -0.64367609      -0.02253610      -2.35651174      -0.19701409       0.76136487      -2.35651174      -0.19701409       0.76136487    -110.38931598
C       -0.21218069       2.16245618       0.12807534        0      -0.36762902      -0.77261847       0.40494484      -3.37007281       2.02453369       2.27324825      -3.37007281       2.02453369       2.27324825     -57.99659980
C        0.93314110      -2.02930192      -0.12881823        0       0.33218216       0.86341369       2.17508574      -0.95883429       1.03428467      -1.45823543      -0.95883429       1.03428467      -1.45823543     -57.55447649
H       -0.10180197       2.10256940       1.22415141        0       0.31698902      -0.52550525      -0.40764050       0.57999048      -1.02938614      -0.03777437       0.57999048      -1.02938614      -0.03777437     -13.72022350
H        0.72293743       2.13435632      -0.33137229        0      -0.24047988       0.03622054      -0.36839160       1.19519797       0.92120477      -0.82773175       1.19519797       0.92120477      -0.82773175     -13.99330724
H       -0.84643415       3.13177616       0.26518290        0      -0.66013955      -0.36199401      -0.33718975       1.04564195      -1.20492345      -1.88574713       1.04564195      -1.20492345      -1.88574713     -13.76321500
H        1.97997950      -1.74565664      -0.21774966        0      -0.20793307       0.35411487      -0.01122904       0.77754237      -1.14299133      -0.57034049       0.77754237      -1.14299133      -0.57034049     -13.53344547
H        1.78378412      -1.96423598       0.43756083        0      -0.00638335      -0.08110656      -0.58215383       0.31797758      -0.23387222       1.37875060       0.31797758      -0.23387222       1.37875060     -13.75309773
H       -0.11332241      -2.24554857      -0.26267275        0      -0.40067088       0.29992810      -0.40361552       1.51433218       0.99693208      -0.87041219       1.51433218       0.99693208      -0.87041219     -13.84036984
12
Properties=species:S:1:pos:R:3:molID:I:1:momenta:R:3:force_mace:R:3:forces:R:3:energies:R:1 Nmols=1 Comp=DMC(1) energy_mace=-587.5748694399155 energy=-587.5748694399155 stress="1.4306248450895715e-06 -6.213231292557581e-07 3.549041039683415e-06 -6.213231292557581e-07 -1.1004102048185928e-05 -5.0007967133273315e-06 3.549041039683415e-06 -5.0007967133273315e-06 7.709624268042582e-06" free_energy=-587.5748694399155 pbc="F F F"
C       -0.24917897      -0.16799640      -0.02151920        0      -0.50017973      -0.47158253      -1.14102620       0.30753925       4.71438550       5.57471335       0.30753925       4.71438550       5.57471335     -59.02047892
O        0.10697219      -0.02759528       1.18704880        0      -2.04995477       2.24656098       1.18505996      -0.94055800      -1.74745833      -3.08921730      -0.94055800      -1.74745833      -3.08921730    -109.54195912
O       -0.85872752       1.08685682      -0.40572733        0       1.98327169      -2.22710054      -0.67298192      -1.10525911      -4.52819871      -1.69755648      -1.10525911      -4.52819871      -1.69755648    -110.33006547
O        0.14552399      -1.20072915      -0.74665850        0      -1.15148205      -0.14215180       1.23377268      -0.94326713      -1.09150737      -1.44652120      -0.94326713      -1.09150737      -1.44652120    -110.69654313
C       -0.26536268       2.14503378       0.13763277        0       0.46878263      -0.08611949      -0.96746237       1.19120124       2.78687389      -1.87993211       1.19120124       2.78687389      -1.87993211     -58.25973677
C        0.95425339      -1.93472425      -0.06996935        0       1.82336772       0.73755789       0.19688465       3.00343925      -2.15282650      -1.48810399       3.00343925      -2.15282650      -1.48810399     -57.20326044
H        0.37269792       1.80787500       1.01872219        0       0.08749969       0.40164658      -0.34095049      -1.28972175       1.28926236      -0.17815672      -1.28972175       1.28926236      -0.17815672     -13.68065584
H        0.46296990       2.52257649      -0.63879207        0      -0.46100628       0.56769642       0.30958929       0.49960325      -0.14289473       0.60706338       0.49960325      -0.14289473       0.60706338     -13.64028935
H       -1.07896408       2.89298778      -0.12912869        0      -0.10884720       0.40443886       0.02917213       0.68300878      -0.08810888       2.15158855       0.68300878      -0.08810888       2.15158855     -13.51882910
H        2.06892839      -1.87698161      -0.29426410        0      -0.05457708      -0.61911227       0.13281265      -1.02772518      -0.44977922       0.85910801      -1.02772518      -0.44977922       0.85910801     -13.63475370
H        1.79989657      -2.15501121       0.51740325        0      -0.57296506      -0.10215345       0.18121546      -0.41805034       0.57196469      -0.01789343      -0.41805034       0.57196469      -0.01789343     -13.85843972
H        0.13218814      -2.29227727      -0.59002881        0       0.53609044      -0.70968065      -0.14608583       0.03978975       0.83828729       0.60490794       0.03978975       0.83828729       0.60490794     -14.18985789
12
Properties=species:S:1:pos:R:3:molID:I:1:momenta:R:3:force_mace:R:3:forces:R:3:energies:R:1 Nmols=1 Comp=DMC(1) energy_mace=-587.4656028141477 energy=-587.4656028141477 stress="7.5222995853377955e-06 4.017817672005341e-06 -8.93271008652285e-06 4.017817672005341e-06 5.123948888339306e-06 1.114798661314672e-05 -8.93271008652285e-06 1.114798661314672e-05 -1.155556558426803e-05" free_energy=-587.4656028141477 pbc="F F F"
C       -0.26215568      -0.05002052       0.08924004        0       0.12289832       1.84428771       1.72306197      -0.02475850      -2.81595407      -5.17586883      -0.02475850      -2.81595407      -5.17586883     -58.94954183
O       -0.00949537       0.02606382       1.17440277        0      -1.20980862      -0.18204187       0.43443104       2.59721225      -1.52482625       8.63428452       2.59721225      -1.52482625       8.63428452    -109.80558086
O       -0.74844958       0.94419458      -0.48882534        0       1.51095045      -1.18133037      -2.13162997      -0.94633904       4.98551049      -3.31639366      -0.94633904       4.98551049      -3.31639366    -110.20164796
O        0.08349643      -1.26206389      -0.69465297        0      -0.06715524      -2.00386872       1.05112742       1.56819469      -0.61465383       1.09312458       1.56819469      -0.61465383       1.09312458    -110.39857838
C       -0.24889107       2.23719645       0.00693937        0       0.26486099       2.35842349      -1.15697006      -1.25452438       1.49925934       3.32299098      -1.25452438       1.49925934       3.32299098     -57.94246001
C        1.09084175      -1.94303578      -0.11824977        0       1.27421086      -0.79277064      -0.11764137      -1.52798857      -2.08553699       0.11115473      -1.52798857      -2.08553699       0.11115473     -57.05462103
H        0.09198583       2.24580313       1.13708904        0      -0.47748362       0.01074976      -0.17828466       0.56973985      -1.07660391      -2.45632355       0.56973985      -1.07660391      -2.45632355     -13.54618957
H        0.42977301       2.87549023      -0.61711010        0      -0.22566736      -0.14354407      -0.09266066      -1.04529766      -1.32499511       0.43413644      -1.04529766      -1.32499511       0.43413644     -14.10943662
H       -1.13302966       2.81331704       0.44591700        0      -0.31386698      -0.22372572       0.28001476       0.46123993      -0.38680793      -1.93886580       0.46123993      -0.38680793      -1.93886580     -13.66791981
H        2.02829364      -2.45118134       0.06311231        0      -0.23161106      -0.18111500       0.66139207      -1.49518624       1.71781414       0.31369581      -1.49518624       1.71781414       0.31369581     -13.81705131
H        1.44527666      -2.12737879       0.85768040        0      -0.19395894       0.16294358      -0.19469894       0.56198416       0.03135774      -1.28779850       0.56198416       0.03135774      -1.28779850     -13.79566411
H        0.31834035      -2.37121535      -0.59693510        0      -0.45336880       0.33199184      -0.27814160       0.53572350       1.59543638       0.26586329       0.53572350       1.59543638       0.26586329     -14.17691131
12
Properties=species:S:1:pos:R:3:molID:I:1:momenta:R:3:force_mace:R:3:forces:R:3:energies:R:1 Nmols=1 Comp=DMC(1) energy_mace=-587.3388464230553 energy=-587.3388464230553 stress="1.5084643249742625e-05 -6.722150934420473e-06 5.292647596406011e-06 -6.722150934420473e-06 1.1289652034223421e-05 -8.475140540835165e-07 5.292647596406011e-06 -8.475140540835165e-07 4.0692472792205284e-05" free_energy=-587.3388464230553 pbc="F F F"
C       -0.23650094      -0.01992270       0.08676144        0       0.60086150      -1.32961656       0.32571254       0.64654629      -0.61339096       4.62927155       0.64654629      -0.61339096       4.62927155     -59.08078645
O       -0.06442803      -0.00573477       1.39001094        0      -0.63318279      -0.43158475       3.12101416      -0.82692367      -0.34331185      -6.96655620      -0.82692367      -0.34331185      -6.96655620    -109.34206964
O       -0.66874477       0.98218942      -0.69535124        0       1.61869082       1.78892546      -2.96056931       1.42895725      -0.58973249       2.45901939       1.42895725      -0.58973249       2.45901939    -110.12562615
O        0.11088729      -1.31179227      -0.58462449        0       0.60061835       0.29490900       2.02969652      -0.33385068       0.78266389      -0.53823992      -0.33385068       0.78266389      -0.53823992    -110.43610260
C       -0.33230217       2.37885331      -0.03491370        0      -1.52441964       0.50487875      -1.04577748      -0.61977390      -3.69253982      -0.54230033      -0.61977390      -3.69253982      -0.54230033     -57.65518399
C        1.08732469      -2.03333630      -0.14425208        0      -0.74464472      -1.10444846       0.15905678      -0.64514326      -0.52070214       1.23350015      -0.64514326      -0.52070214       1.23350015     -57.31103533
H        0.31292577       1.98090444       0.94235429        0       0.39085023       0.16920912      -0.37830430      -1.77700839       2.58427203      -2.50186774      -1.77700839       2.58427203      -2.50186774     -13.69878918
H        0.29860425       2.72432166      -0.91802242        0      -0.34316956      -0.01338878       0.27111707      -0.93890721       0.49489891       1.87981689      -0.93890721       0.49489891       1.87981689     -14.00145197
H       -1.46713918       2.65903107       0.03312650        0      -0.40436428       0.30622707      -0.65399519       2.86059203       0.56038080       0.45004318       2.86059203       0.56038080       0.45004318     -13.91715273
H        1.89862781      -2.49440992       0.30606017        0      -0.14807251       0.10301189      -0.24515590       0.05105166       0.82993808       0.69289214       0.05105166       0.82993808       0.69289214     -13.85090491
H        1.41668176      -2.00673946       0.92825327        0      -0.11058365       0.01246957      -0.18804041       0.23192180      -0.53478104      -1.51762599       0.23192180      -0.53478104      -1.51762599     -13.65130264
H        0.49543153      -2.21543607      -0.99107008        0       0.69741626      -0.30059232      -0.43475446      -0.07746194       1.04230461       0.72204688      -0.07746194       1.04230461       0.72204688     -14.26844084
12
Properties=species:S:1:pos:R:3:molID:I:1:momenta:R:3:force_mace:R:3:forces:R:3:energies:R:1 Nmols=1 Comp=DMC(1) energy_mace=-587.6107716907832 energy=-587.6107716907832 stress="7.252718044770734e-06 -2.5370184708124337e-06 1.5374895220966232e-06 -2.5370184708124337e-06 2.1415311931236477e-05 -9.507357886946113e-07 1.5374895220966232e-06 -9.507357886946113e-07 5.970522680925454e-06" free_energy=-587.6107716907832 pbc="F F F"
C       -0.14369615      -0.06749539       0.21995777        0       0.83625338       0.01240426       1.19825687      -0.82177510       1.25559803      -6.28019909      -0.82177510       1.25559803      -6.28019909     -58.68385062
O       -0.14135294      -0.02189181       1.36432293        0      -1.03973782       0.40739655      -2.38910763       0.19513417       0.48186923       2.93378524       0.19513417       0.48186923       2.93378524    -110.19135868
O       -0.48793759       1.03992907      -0.72522556        0       3.67771012       0.34654516       2.12476330       0.25229644      -1.19117267       3.37679428       0.25229644      -1.19117267       3.37679428    -110.03953950
O        0.13115711      -1.31708811      -0.52708208        0      -0.65186707       0.36013898      -0.04237838      -0.71694878       1.83805206      -0.48680569      -0.71694878       1.83805206      -0.48680569    -110.38376158
C       -0.53378232       2.33888827      -0.17319135        0      -1.50311545      -0.37182060      -2.70460005       3.38698820       3.82759878       0.58494377       3.38698820       3.82759878       0.58494377     -57.95900318
C        1.04115031      -2.13492740      -0.13086533        0       0.60410657      -1.64135513       1.36572959       3.41814326      -0.05876324       4.00148224       3.41814326      -0.05876324       4.00148224     -57.36894644
H        0.03648125       2.54439990       0.86864054        0      -0.70322791       0.25783642       0.31345662      -1.39168711      -1.48364718      -1.86702289      -1.39168711      -1.48364718      -1.86702289     -13.76041561
H        0.23774479       3.08813389      -0.83539880        0      -0.09300549      -0.03944883       0.01883659      -1.55276556      -2.03061991       0.91638523      -1.55276556      -2.03061991       0.91638523     -13.50494563
H       -1.39219456       3.09805872      -0.11794351        0      -0.36432838       0.27672668       0.30589699       0.33440261      -2.40654681      -0.33465120       0.33440261      -2.40654681      -0.33465120     -13.97596874
H        2.05266426      -2.27326223       0.36002923        0      -0.20312021       0.44978257      -0.16554623      -1.72014156       0.56280233      -1.00090376      -1.72014156       0.56280233      -1.00090376     -13.72242770
H        1.41916786      -2.09573552       0.93966388        0      -0.04624586      -0.27260174      -0.09006442      -0.46401787      -0.69008863      -1.14563414      -0.46401787      -0.69008863      -1.14563414     -13.59262195
H        0.59003445      -2.10091554      -0.99329804        0      -0.51342189       0.21439569       0.06475676      -0.91962869      -0.10508200      -0.69817400      -0.91962869      -0.10508200      -0.69817400     -14.42793206
12
Properties=species:S:1:pos:R:3:molID:I:1:momenta:R:3:force_mace:R:3:forces:R:3:energies:R:1 Nmols=1 Comp=DMC(1) energy_mace=-586.9405483261164 energy=-586.9405483261164 stress="9.525116149688416e-06 1.5233399252463313e-06 -5.084230103100961e-06 1.5233399252463313e-06 5.824430282265742e-06 -5.146343672319278e-06 -5.084230103100961e-06 -5.146343672319278e-06 1.3827708428655375e-06" free_energy=-586.9405483261164 pbc="F F F"
C       -0.07669053      -0.05743004       0.05108061        0       0.27772262       0.69765611      -1.90391221      -1.22955433       0.92498189       7.43729960      -1.22955433       0.92498189       7.43729960     -59.39682657
O       -0.17843678      -0.02216717       1.31179137        0      -0.53855531      -0.37172892      -0.94448348       0.75817659      -0.52229497      -2.52332287       0.75817659      -0.52229497      -2.52332287    -109.29063067
O       -0.30039758       1.02874799      -0.56213612        0       3.17055150      -0.20639688       1.92081824       0.51609247       0.39078700      -4.71268403       0.51609247       0.39078700      -4.71268403    -110.11190327
O        0.07528077      -1.25222648      -0.51553344        0      -0.43049724       0.48525818       0.50859790       1.85548942      -3.56140563      -0.91826701       1.85548942      -3.56140563      -0.91826701    -110.10944193
C       -0.60889922       2.40426141      -0.26719567        0      -0.09284919       0.45792253      -0.20730638       1.07427825      -1.02685732      -0.99567523       1.07427825      -1.02685732      -0.99567523     -57.98188532
C        1.05652867      -2.18386052      -0.01361167        0      -1.02058097       0.66084324       0.69044225      -1.14426020       2.69558881      -0.35860869      -1.14426020       2.69558881      -0.35860869     -57.21774414
H       -0.91391675       2.32621115       0.74403657        0      -0.95759366      -0.04970044       0.07930840       0.36516497       1.13014159       0.41495079       0.36516497       1.13014159       0.41495079     -13.55688553
H        0.22320482       2.98307202      -0.94200231        0       0.11762019       0.17029083      -0.17462854      -2.57069685      -0.83167145       2.26975378      -2.57069685      -0.83167145       2.26975378     -13.71528160
H       -1.68875299       2.42130222      -0.33551276        0      -0.40944544      -0.98538819      -0.66026200       0.86601910       0.69634546      -0.23284092       0.86601910       0.69634546      -0.23284092     -13.59453770
H        1.98038995      -1.79597230       0.30838281        0      -0.24548892       0.01584809       0.21609135      -0.66824188      -1.53413336       0.46560583      -0.66824188      -1.53413336       0.46560583     -13.72737736
H        1.36451734      -2.54472005       0.88796236        0       0.23343987      -0.45230149      -0.01321664       0.70125688       0.99420143      -0.06500884       0.70125688       0.99420143      -0.06500884     -13.77535565
H        0.30411990      -2.27887920      -0.64394164        0      -0.10432344      -0.42230305       0.48855111      -0.52372444       0.64431655      -0.78120241      -0.52372444       0.64431655      -0.78120241     -14.46267859
12
Properties=species:S:1:pos:R:3:molID:I:1:momenta:R:3:force_mace:R:3:forces:R:3:energies:R:1 Nmols=1 Comp=DMC(1) energy_mace=-587.5957588993341 energy=-587.5957588993341 stress="3.727523103196635e-06 -4.693956592118982e-07 6.477126027221091e-06 -4.693956592118982e-07 6.574604665889807e-06 4.994218796181907e-06 6.477126027221091e-06 4.994218796181907e-06 -2.037981255188809e-05" free_energy=-587.5957588993341 pbc="F F F"
C       -0.09573922      -0.05495304       0.12831942        0      -0.21702433      -0.77532077       0.84978620       0.67841221      -0.04117854      -8.03682835       0.67841221      -0.04117854      -8.03682835     -58.89792662
O       -0.22774150      -0.03233904       1.21979860        0      -0.99152221      -0.08975239       0.66769181      -1.10862341      -0.66455109      10.30359798      -1.10862341      -0.66455109      10.30359798    -109.84556307
O       -0.07334901       1.06659130      -0.56938356        0       3.90750401       1.30838818      -1.36049849       0.53587190       1.40876268      -1.14082330       0.53587190       1.40876268      -1.14082330    -110.06526512
O        0.07893266      -1.32823174      -0.53895141        0       0.55095406      -1.97007671      -0.89180052       0.21102581       0.70017502      -0.10245899       0.21102581       0.70017502      -0.10245899    -110.43370386
C       -0.72180226       2.33483712      -0.21865752        0      -2.66616347      -1.98263474       0.66779412       1.91202618       0.06358661      -4.82924257       1.91202618       0.06358661      -4.82924257     -57.87846074
C        0.94394031      -2.08708181       0.04641959        0      -1.27173815       1.09816025       0.89043433       2.27331480      -1.11982139       1.35217688       2.27331480      -1.11982139       1.35217688     -57.38907700
H       -1.01398321       2.65529090       0.71488300        0       0.13087844       0.50860369       0.12440167      -1.13053536      -0.87492449       1.94225418      -1.13053536      -0.87492449       1.94225418     -14.12622324
H        0.00403830       3.19242652      -0.51184286        0       0.18733178       0.51212107       0.52791459      -0.26538958      -1.34274555       0.22527812      -0.26538958      -1.34274555       0.22527812     -13.76197353
H       -1.36431541       2.31269944      -1.13961997        0       0.37456920       0.61451945      -0.72879727      -0.59702235       0.75371399       1.61674489      -0.59702235       0.75371399       1.61674489     -13.71505038
H        2.01423556      -1.97969884       0.54248071        0       0.16115610       0.25165038      -0.25970641      -1.49614401       1.16599811      -1.61900510      -1.49614401       1.16599811      -1.61900510     -13.41764745
H        1.67249635      -2.45995637       0.70229236        0      -0.02247735       0.08686754      -0.22590858      -1.25397980      -0.58651762       0.20854881      -1.25397980      -0.58651762       0.20854881     -13.73212396
H        0.09553314      -2.28000834      -0.56989161        0      -0.14346809       0.43747404      -0.26131144       0.24104360       0.53750228       0.07975745       0.24104360       0.53750228       0.07975745     -14.33274392
12
Properties=species:S:1:pos:R:3:molID:I:1:momenta:R:3:force_mace:R:3:forces:R:3:energies:R:1 Nmols=1 Comp=DMC(1) energy_mace=-587.5081365299957 energy=-587.5081365299957 stress="-2.95120521980403e-06 -2.141062621783674e-06 -9.64284982421322e-06 -2.141062621783674e-06 8.475443283543731e-06 -5.587552502442694e-06 -9.64284982421322e-06 -5.587552502442694e-06 2.0129083633775923e-05" free_energy=-587.5081365299957 pbc="F F F"
C       -0.07841410      -0.08216734       0.06725299        0      -0.22497379       0.63801060       0.48355353      -1.38442820       2.83154400       4.83658202      -1.38442820       2.83154400       4.83658202     -59.05029639
O       -0.34714095      -0.06961980       1.36115010        0      -1.92761829      -1.02670832       0.45048505       1.39611932       0.14827741      -7.07752446       1.39611932       0.14827741      -7.07752446    -109.31102670
O        0.12458144       1.14754445      -0.63351483        0       2.04258749       0.86674704      -0.20478579      -2.31840258      -2.69553768       1.08858779      -2.31840258      -2.69553768       1.08858779    -110.10483084
O        0.06647708      -1.30857573      -0.57910560        0      -1.19604958       1.75358499      -0.55218336      -0.33255529      -0.34628304       0.48588676      -0.33255529      -0.34628304       0.48588676    -110.54208687
C       -0.76837121       2.25321957      -0.27869557        0       1.33683391      -0.48106491      -0.89059145       1.31031274      -0.65785966       1.52645445       1.31031274      -0.65785966       1.52645445     -58.02671390
C        0.91471208      -2.02535519       0.10050599        0      -0.05881531      -0.25962685       0.22602041       0.22195849       0.08085077       0.03878778       0.22195849       0.08085077       0.03878778     -56.98790926
H       -1.26637992       2.11062130       0.70193331        0      -0.42214401      -1.42564450      -0.17163394      -0.16499133      -0.59740917      -0.63341810      -0.16499133      -0.59740917      -0.63341810     -13.99728916
H        0.05518727       2.86728259      -0.04138426        0       0.47584265      -0.34194094       0.50082632       0.38260677       1.99795186       0.09538262       0.38260677       1.99795186       0.09538262     -13.64226720
H       -1.43782305       2.73094903      -0.99623388        0      -0.62876207       0.21081936       0.15900485       0.32296579      -0.91771815      -0.31385243       0.32296579      -0.91771815      -0.31385243     -14.15687424
H        1.86595479      -1.71406183       0.23716791        0       0.29067673      -0.10473253       0.04129284       1.21251982      -1.28369035       0.94038926       1.21251982      -1.28369035       0.94038926     -13.61390675
H        1.47756945      -2.66560507       0.64376024        0      -0.09979653       0.25141622      -0.13618646       0.91236752       0.67503921       0.58537421       0.91236752       0.67503921       0.58537421     -13.74971737
H        0.33361303      -2.29460798      -0.58687743        0       0.41221878      -0.08086015       0.09419800      -1.55847305       0.76483481      -1.57264990      -1.55847305       0.76483481      -1.57264990     -14.32521783
12
Properties=species:S:1:pos:R:3:molID:I:1:momenta:R:3:force_mace:R:3:forces:R:3:energies:R:1 Nmols=1 Comp=DMC(1) energy_mace=-588.1100695585853 energy=-588.1100695585853 stress="3.9104760596323527e-07 -2.665264944682508e-06 1.2078378093836965e-05 -2.665264944682508e-06 2.3018550400038894e-07 -1.1696227013144473e-06 1.2078378093836965e-05 -1.1696227013144473e-06 -1.2771018795468822e-05" free_energy=-588.1100695585853 pbc="F F F"
C       -0.09497706      -0.00044335       0.17724355        0       0.73648536       0.52663402      -0.19364170       2.34139786      -0.58072809      -8.95279639       2.34139786      -0.58072809      -8.95279639     -58.80335235
O       -0.41658011      -0.08676428       1.24072812        0      -1.35305219       0.39036850      -1.57823902      -2.10106357       0.47926655       7.37893557      -2.10106357       0.47926655       7.37893557    -110.13161571
O        0.17861242       1.09481459      -0.61011138        0       0.04069676      -2.44712756       0.46215922      -0.21813090      -0.30023001       1.25409853      -0.21813090      -0.30023001       1.25409853    -110.36657581
O        0.03254288      -1.21270540      -0.57004109        0      -0.08735106       1.68317660       0.64654647       1.83963649       2.31754886       2.24852475       1.83963649       2.31754886       2.24852475    -110.27593716
C       -0.68166185       2.16125982      -0.24817717        0       1.34897009      -1.36080855       1.61956111       1.12906633       1.32598400      -1.16904703       1.12906633       1.32598400      -1.16904703     -58.02284205
C        0.94641533      -2.04322209       0.06834868        0       0.21309412      -0.53116030      -0.48372875      -1.36133259       0.84525925      -1.38335339      -1.36133259       0.84525925      -1.38335339     -57.34483467
H       -1.51341939       1.75191713       0.14077840        0      -0.52377806       0.72301244      -0.18948554      -2.43999469      -0.97947812       2.42250910      -2.43999469      -0.97947812       2.42250910     -13.63047076
H       -0.31002155       3.05351210       0.25273423        0      -0.69674428       0.17537645       0.30013004       0.66751087      -0.75316258       0.40689150       0.66751087      -0.75316258       0.40689150     -14.06033216
H       -1.24955837       2.56267077      -1.04185996        0       0.76950936      -0.13179834      -0.67288344       0.14366069       0.24306940      -1.66710374       0.14366069       0.24306940      -1.66710374     -13.76375261
H        1.96053977      -1.99700433       0.37000884        0       0.19929740       0.08507292      -0.15845710       0.16130172       0.29497564      -1.03668140       0.16130172       0.29497564      -1.03668140     -13.82978070
H        1.55626274      -2.24540970       0.96388495        0      -0.50958374       0.71895537       0.18490701      -1.67963302      -0.01716292      -0.21442921      -1.67963302      -0.01716292      -0.21442921     -13.76046854
H        0.11024849      -2.03889222      -0.70586692        0      -0.13754375       0.16829845       0.06313168       1.51758079      -2.87534198       0.71245171       1.51758079      -2.87534198       0.71245171     -14.12010702
12
Properties=species:S:1:pos:R:3:molID:I:1:momenta:R:3:force_mace:R:3:forces:R:3:energies:R:1 Nmols=1 Comp=DMC(1) energy_mace=-588.1684848113836 energy=-588.1684848113836 stress="-4.461092329733642e-06 -9.990219718363852e-07 -8.338503273561697e-06 -9.990219718363852e-07 -1.839575428635176e-05 6.136943985246872e-06 -8.338503273561697e-06 6.136943985246872e-06 -6.5101208693137935e-06" free_energy=-588.1684848113836 pbc="F F F"
C       -0.06644626      -0.01322433       0.06621520        0      -1.37812195      -0.40171810       1.24805322      -2.73562875      -0.95629823       7.14330014      -2.73562875      -0.95629823       7.14330014     -59.32704791
O       -0.51579671      -0.03910243       1.24176254        0      -1.04272908       1.00390536      -0.81344120       1.23099445       0.34228058      -2.66304525       1.23099445       0.34228058      -2.66304525    -109.48801567
O        0.20301774       1.00974060      -0.57637122        0       1.00219321      -0.00860720       0.32308573       0.13217031       2.64256941      -0.93916504       0.13217031       2.64256941      -0.93916504    -110.58370593
O        0.08801444      -1.14520133      -0.53463618        0       1.86986062      -0.77743853      -0.38361410       0.55640545      -2.80095139      -3.50675607       0.55640545      -2.80095139      -3.50675607    -110.34234347
C       -0.64728160       2.11961562      -0.21827730        0      -0.34360854      -0.19126305      -0.46835284       0.86314014       0.11548719       0.77649222       0.86314014       0.11548719       0.77649222     -57.79483639
C        0.90088980      -2.02654138       0.03715545        0      -1.71536360       0.82164295      -0.35459067      -2.20116865      -0.02358912      -0.76061286      -2.20116865      -0.02358912      -0.76061286     -57.48000738
H       -1.64923598       1.88822376       0.08825461        0       0.48261017      -0.29310476      -0.46740733      -0.43159352      -0.80729200      -0.38591677      -0.43159352      -0.80729200      -0.38591677     -13.99042802
H       -0.30049321       2.79859535       0.57445062        0       0.70580063      -0.58436608       0.04736395       0.72228103      -0.37928792      -0.32310401       0.72228103      -0.37928792      -0.32310401     -13.99036795
H       -0.49660737       2.47502863      -1.16963303        0       0.42749130       0.24443999       0.69592982      -0.70972452       1.87221184      -1.44180960      -0.70972452       1.87221184      -1.44180960     -13.56904713
H        1.85221677      -1.94965990       0.32036524        0       0.19099796       0.27840982       0.29372434       1.33027633       0.18215105       0.46051323       1.33027633       0.18215105       0.46051323     -13.84933578
H        1.18993104      -1.79714986       0.96132073        0       0.16105157       0.16453702       0.10921726       1.32349695      -0.44595130       1.82046768       1.32349695      -0.44595130       1.82046768     -13.64019922
H        0.13429749      -2.30309116      -0.58654382        0      -0.36018228      -0.25643743      -0.22996819      -0.08064922       0.25866988      -0.18036367      -0.08064922       0.25866988      -0.18036367     -14.11314996
12
Properties=species:S:1:pos:R:3:molID:I:1:momenta:R:3:force_mace:R:3:forces:R:3:energies:R:1 Nmols=1 Comp=DMC(1) energy_mace=-588.5364350187798 energy=-588.5364350187798 stress="-6.167708644579708e-06 6.52960335917707e-06 -1.9931710298642227e-06 6.52960335917707e-06 -5.210856364153359e-06 -5.263765096597139e-07 -1.9931710298642227e-06 -5.263765096597139e-07 -2.4828625503019493e-06" free_energy=-588.5364350187798 pbc="F F F"
C       -0.19129681      -0.03861722       0.16517320        0       0.11966884      -0.04981349      -1.45729525       2.06153398       1.06887718      -2.57704839       2.06153398       1.06887718      -2.57704839     -58.84074634
O       -0.60544577       0.03461787       1.26147930        0      -2.92998712       1.15519917       2.72476607      -0.47883682      -0.57176408       0.44290306      -0.47883682      -0.57176408       0.44290306    -110.17425802
O        0.26207735       1.03496418      -0.58134264        0       1.03365674      -0.46080625      -0.70432697      -0.52434809      -2.60659103      -0.45270690      -0.52434809      -2.60659103      -0.45270690    -110.32797751
O        0.15545167      -1.20783052      -0.63449853        0      -0.37103301      -0.04992660      -2.10522817      -1.82002682       1.16256661       0.26810388      -1.82002682       1.16256661       0.26810388    -110.58602625
C       -0.54747150       2.11422159      -0.25154467        0       2.17177828       0.06751319      -0.38410362       0.38537701      -0.43471995       1.79123115       0.38537701      -0.43471995       1.79123115     -58.12886666
C        0.83120141      -2.01347400       0.07596029        0       0.25830936      -0.52216480       1.96665335       2.62620906      -0.44833626       2.06727851       2.62620906      -0.44833626       2.06727851     -57.37210659
H       -1.56574653       1.66180089      -0.26043035        0       0.35168192       0.67151606      -0.32087010       0.06864037       1.14506643       0.63811817       0.06864037       1.14506643       0.63811817     -13.79796883
H        0.01666553       2.33468700       0.70453199        0      -0.50999922      -0.13111490       0.15567393      -1.74791139       0.82057864      -0.32139148      -1.74791139       0.82057864      -0.32139148     -13.58224609
H       -0.50122154       2.93786650      -0.91773968        0      -0.24970959      -0.25115430       0.63814873       0.32070344       0.51513649      -0.70064640       0.32070344       0.51513649      -0.70064640     -14.05556018
H        1.84232936      -1.87800732       0.24727644        0       0.22115942      -0.06816364      -0.42864609       1.29548294      -0.37067599       0.53595012       1.29548294      -0.37067599       0.53595012     -13.78067476
H        1.34778181      -1.97627482       0.99973649        0      -0.28351458      -0.45344364      -0.22542751      -0.10644896       0.06615819       0.05416131      -0.10644896       0.06615819       0.05416131     -13.82287114
H        0.18267396      -2.38946015      -0.48297713        0       0.18798896       0.09235919       0.14065563      -2.08037472      -0.34629626      -1.74595302      -2.08037472      -0.34629626      -1.74595302     -14.06713267
12
Properties=species:S:1:pos:R:3:molID:I:1:momenta:R:3:force_mace:R:3:forces:R:3:energies:R:1 Nmols=1 Comp=DMC(1) energy_mace=-587.8807981960152 energy=-587.8807981960152 stress="1.0977731413782535e-05 -4.12027970929847e-06 -5.952470398943374e-06 -4.12027970929847e-06 -1.9780970723390266e-07 1.628906863356037e-06 -5.952470398943374e-06 1.628906863356037e-06 2.625619142553698e-05" free_energy=-587.8807981960152 pbc="F F F"
C       -0.16549603      -0.01954743       0.11984867        0      -0.45951223       1.22613138       0.59880946      -1.06285367      -0.16259320       2.21674829      -1.06285367      -0.16259320       2.21674829     -58.97844442
O       -0.71108520       0.07099815       1.27307101        0       0.38395077       0.17041863      -3.28759434       2.63725523      -0.77867777      -5.62372554       2.63725523      -0.77867777      -5.62372554    -109.64232265
O        0.30479431       0.98701976      -0.63507025        0       0.08319121      -1.20400615      -0.15304380      -1.29125502      -0.18032232       2.17169988      -1.29125502      -0.18032232       2.17169988    -110.60465150
O        0.14107161      -1.19359977      -0.67798786        0      -0.27281732      -0.03405523       1.23831820       1.01644089       1.18184941       3.88581569       1.01644089       1.18184941       3.88581569    -110.35032621
C       -0.40680611       2.11210325      -0.23312984        0      -0.24419526       1.15557533       0.83014037      -4.58556736       1.89339164       0.25231155      -4.58556736       1.89339164       0.25231155     -57.91262997
C        0.81590617      -2.03952095       0.17919192        0      -0.25052553      -0.58903850      -0.05394131       0.14445855      -0.74719280      -0.20482763       0.14445855      -0.74719280      -0.20482763     -57.24016058
H       -1.56197771       1.94991822      -0.38255322        0       0.35723475      -0.35532203      -0.28448115       1.22447634      -0.51229013      -0.53885803       1.22447634      -0.51229013      -0.53885803     -13.48457201
H       -0.69549086       2.38248427       0.85147355        0      -0.29120816      -0.06690975      -0.10013195       2.22811932      -0.55483656      -1.07957958       2.22811932      -0.55483656      -1.07957958     -13.74681211
H       -0.30633732       3.01100087      -0.85168975        0       0.86672442      -0.43870610       0.42107666       1.14396989      -0.31568747       0.43790720       1.14396989      -0.31568747       0.43790720     -14.01531445
H        1.80170422      -2.25407636       0.44935942        0      -0.07578437      -0.61862940       0.50574578       0.52185211       0.09198983      -0.96331430       0.52185211       0.09198983      -0.96331430     -13.82615354
H        1.47018291      -2.24054704       1.08959227        0      -0.11947615       0.03198251      -0.02595900      -1.92443739       0.91915231      -0.82811868      -1.92443739       0.91915231      -0.82811868     -13.67191651
H       -0.01761329      -2.10594907      -0.47521632        0       0.02241786       0.72255930       0.31106109      -0.05245889      -0.83478294       0.27394114      -0.05245889      -0.83478294       0.27394114     -14.40749424
12
Properties=species:S:1:pos:R:3:molID:I:1:momenta:R:3:force_mace:R:3:forces:R:3:energies:R:1 Nmols=1 Comp=DMC(1) energy_mace=-587.9333338886969 energy=-587.9333338886969 stress="-5.811797980051706e-06 1.9860301278223147e-06 6.092452252507173e-06 1.9860301278223147e-06 -8.929507736788723e-06 1.0002756221771965e-05 6.092452252507173e-06 1.0002756221771965e-05 -9.73672984308087e-07" free_energy=-587.9333338886969 pbc="F F F"
C       -0.16622097       0.02998057       0.07434548        0       1.54504977      -0.47212640      -2.77021806       0.55190607      -3.27215482      -0.05554956       0.55190607      -3.27215482      -0.05554956     -59.10836553
O       -0.68340679       0.05838553       1.10594197        0      -0.35121915      -0.45426848      -0.50610608      -2.13083738      -0.36195787       3.63937988      -2.13083738      -0.36195787       3.63937988    -109.95156151
O        0.33415487       0.93983375      -0.58452322        0       0.72038896       0.03642654       1.64977218       0.65132286       4.45712057      -1.68067317       0.65132286       4.45712057      -1.68067317    -110.33596797
O        0.13993181      -1.17277783      -0.54521694        0       0.44250391      -0.42961954       2.32680170       0.60101733      -1.74204949      -1.30759128       0.60101733      -1.74204949      -1.30759128    -110.44903759
C       -0.44458700       2.20856719      -0.21288336        0      -0.02267503       0.87150216      -0.54195600       1.21146713      -2.33185614       0.28568011       1.21146713      -2.33185614       0.28568011     -57.71672770
C        0.75165717      -2.09666693       0.16795459        0      -2.18571212      -0.40625911      -0.02934792      -4.58529657       2.00519747       1.51381676      -4.58529657       2.00519747       1.51381676     -57.40445282
H       -1.31002972       1.93613582      -0.88270666        0       0.04773521       0.80291996      -0.42121031       0.40984827       1.64055588       1.31929717       0.40984827       1.64055588       1.31929717     -13.84328868
H       -0.51661513       2.18811119       0.96659346        0       0.25617078      -0.17239986      -0.04989805      -0.36363368       0.32332482      -2.61412501      -0.36363368       0.32332482      -2.61412501     -13.82356107
H        0.27418549       2.95276512      -0.53155156        0      -0.27788406       0.00950004       0.41264137      -0.69160631       0.42013664      -0.15946357      -0.69160631       0.42013664      -0.15946357     -14.02993631
H        1.52959575      -2.60302502       0.35019993        0      -0.23567433       0.00446154      -0.21272730       3.65352557      -1.17340725       1.17932976       3.65352557      -1.17340725       1.17932976     -13.64636572
H        1.13859005      -1.92255446       1.17378358        0      -0.01634385       0.23558796       0.06840606       0.19351660      -1.20201038      -1.94055753       0.19351660      -1.20201038      -1.94055753     -13.61218928
H       -0.15972497      -2.29272261      -0.23884999        0       0.07765991      -0.02572481       0.07384241       0.49877011       1.23710057      -0.17954357       0.49877011       1.23710057      -0.17954357     -14.01187971
12
Properties=species:S:1:pos:R:3:molID:I:1:momenta:R:3:force_mace:R:3:forces:R:3:energies:R:1 Nmols=1 Comp=DMC(1) energy_mace=-588.0341049717647 energy=-588.0341049717647 stress="3.331852289934864e-06 1.2685403659337365e-06 2.097080342784654e-06 1.2685403659337365e-06 -7.0098921100331215e-06 -1.237524114878963e-06 2.097080342784654e-06 -1.237524114878963e-06 -6.700569250335424e-07" free_energy=-588.0341049717647 pbc="F F F"
C       -0.12184337      -0.05251672       0.03256984        0      -0.25267578      -0.21910907       2.05481013       0.39904018       3.37578613       1.18742336       0.39904018       3.37578613       1.18742336     -59.19542883
O       -0.72074928       0.01111706       1.05933978        0      -0.67035210      -0.99807132      -1.71357487      -0.49011749      -0.08402431       0.50093416      -0.49011749      -0.08402431       0.50093416    -109.90868520
O        0.38597631       1.06385932      -0.57235683        0       0.60456978       3.03291132      -0.76855987      -2.04442599       0.18860646      -0.73193736      -2.04442599       0.18860646      -0.73193736    -110.30991228
O        0.15807950      -1.24685848      -0.49522161        0       0.05565270      -0.92929641      -1.08411086      -0.67427478       1.76227096      -3.56146750      -0.67427478       1.76227096      -3.56146750    -110.50718618
C       -0.42046450       2.22765593      -0.28730317        0       1.01370800       0.39479517      -1.03022249       2.21439298       2.68392624       3.40249076       2.21439298       2.68392624       3.40249076     -57.91907321
C        0.61641377      -2.14329292       0.25240579        0      -0.79167575      -1.26600800       1.47575104       0.97348797      -0.66536365       1.14161184       0.97348797      -0.66536365       1.14161184     -57.55077935
H       -1.18738424       2.80978547      -0.81594682        0      -0.03251556       0.21601182       0.24593413      -0.13556154      -1.93627014      -0.62858948      -0.13556154      -1.93627014      -0.62858948     -14.00952906
H       -0.71778779       2.19468698       0.83816933        0      -0.61157039       0.20872261       0.15112594      -0.12526215      -0.14133032      -1.85544364      -0.12526215      -0.14133032      -1.85544364     -13.77152189
H        0.33648597       3.10607128      -0.22291499        0       0.14709229      -0.37213314       0.40933715      -0.31665126      -1.27325348      -0.24214002      -0.31665126      -1.27325348      -0.24214002     -13.68575996
H        1.60155041      -2.33186404       0.43238655        0       0.07443099       0.36511146      -0.00484084       0.89808446      -1.18520334      -0.58568048       0.89808446      -1.18520334      -0.58568048     -13.63915224
H        1.38584865      -2.12113672       1.09461659        0       0.34315240      -0.29618805       0.35513100      -1.62654941       0.01344408       0.13905201      -1.62654941       0.01344408       0.13905201     -13.53341458
H       -0.27126834      -2.05304383      -0.48807009        0       0.12018341      -0.13674640      -0.09078045       0.92783705      -2.73858866       1.23374636       0.92783705      -2.73858866       1.23374636     -14.00366220
12
Properties=species:S:1:pos:R:3:molID:I:1:momenta:R:3:force_mace:R:3:forces:R:3:energies:R:1 Nmols=1 Comp=DMC(1) energy_mace=-588.2141779268762 energy=-588.2141779268762 stress="8.9090697654356e-06 4.8308971926251135e-06 -5.3658691378907525e-06 4.8308971926251135e-06 1.000735212425888e-05 -7.3611463863386625e-06 -5.3658691378907525e-06 -7.3611463863386625e-06 3.855868931091708e-06" free_energy=-588.2141779268762 pbc="F F F"
C       -0.06225698       0.01492360       0.03865111        0       1.41099029       1.06288068      -2.07416762      -2.31569976       0.04826475       0.62970307      -2.31569976       0.04826475       0.62970307     -59.03966183
O       -0.79198228      -0.04115416       1.04214098        0      -1.14966625      -0.60281343       0.57232351       2.76129193       0.97267935      -2.94140430       2.76129193       0.97267935      -2.94140430    -109.79789591
O        0.36711731       1.19655068      -0.60722306        0      -0.97505454       0.15334473       0.19217122      -0.11329083      -4.24693262       1.79424619      -0.11329083      -4.24693262       1.79424619    -110.39253992
O        0.13868509      -1.31797224      -0.57219056        0      -0.12541967      -1.93342794      -0.52365059       1.20866058      -1.09632175       2.60120644       1.20866058      -1.09632175       2.60120644    -110.18936304
C       -0.34843598       2.31448246      -0.25960338        0       0.46938680       1.92733052       0.61974775      -0.76388423       1.39318586      -1.52693437      -0.76388423       1.39318586      -1.52693437     -58.18534012
C        0.64241722      -2.24421216       0.38365191        0       0.81996786      -0.54929426       0.50935383      -0.46882837       1.60451920      -4.79479645      -0.46882837       1.60451920      -4.79479645     -57.33231215
H       -1.09187692       2.44729042      -1.16221411        0       0.58453372      -0.43790673      -0.65010914       1.58420874       0.88878440       0.99462889       1.58420874       0.88878440       0.99462889     -13.68103692
H       -1.09990475       2.16278802       0.49747090        0      -0.40243035      -0.19235095       0.05353747       0.37949960      -0.08166387       1.08431360       0.37949960      -0.08166387       1.08431360     -13.91754953
H        0.48013126       3.06157396      -0.00268818        0      -0.17362758       0.53207440      -0.10980710      -1.95980882      -0.39973896      -0.55132707      -1.95980882      -0.39973896      -0.55132707     -13.87736856
H        1.69980516      -2.26904484       0.61805859        0      -0.16129452      -0.08976528       0.61941453      -1.18611235      -0.07687719       0.30053781      -1.18611235      -0.07687719       0.30053781     -13.91619755
H        1.00499480      -2.12368228       1.23218291        0      -0.23789047       0.31092824       0.73312609       2.22511451       0.56430922       4.07210403       2.22511451       0.56430922       4.07210403     -13.77565948
H       -0.03288377      -2.47164842      -0.24485146        0      -0.05949528      -0.18099999       0.05806007      -1.35115099       0.42979162      -1.66227784      -1.35115099       0.42979162      -1.66227784     -14.10925292
12
Properties=species:S:1:pos:R:3:molID:I:1:momenta:R:3:force_mace:R:3:forces:R:3:energies:R:1 Nmols=1 Comp=DMC(1) energy_mace=-588.0212009866351 energy=-588.0212009866351 stress="-4.298935208569778e-06 -4.58169168038754e-06 6.544703629719453e-06 -4.58169168038754e-06 1.0649893170135833e-05 -1.4018775885555037e-07 6.544703629719453e-06 -1.4018775885555037e-07 -5.262036537175794e-06" free_energy=-588.0212009866351 pbc="F F F"
C       -0.11875761       0.04873771      -0.00205623        0      -1.83451035      -0.55645990       1.17205890       1.42227974      -1.15570530      -2.02000676       1.42227974      -1.15570530      -2.02000676     -58.92221408
O       -0.75037473      -0.02525132       0.96208954        0       1.84987462       0.63746982      -2.41019904      -1.92562093      -0.20163860       2.90999471      -1.92562093      -0.20163860       2.90999471    -110.05543410
O        0.32834800       1.13914396      -0.55381846        0      -0.04748052      -1.33761559       1.16156490       1.03360355       1.78976062      -0.54457535       1.03360355       1.78976062      -0.54457535    -110.22167524
O        0.20031426      -1.42782123      -0.53708986        0       1.83655324      -1.02051063       1.80914627       0.77096436       0.50143921       0.46495033       0.77096436       0.50143921       0.46495033    -110.20384966
C       -0.37150418       2.44567611      -0.27091972        0       0.07134661       0.84037063      -1.14873649       0.90043196      -1.21738438      -3.77514175       0.90043196      -1.21738438      -3.77514175     -57.81691334
C        0.66994959      -2.26269431       0.40117456        0      -0.39247796       0.48354588      -0.44148117      -2.25408439       1.03397463      -1.97168460      -2.25408439       1.03397463      -1.97168460     -57.44626982
H       -0.66229591       2.69776876      -1.33081854        0      -0.37696993       0.66661984      -0.13188568      -0.69551069      -0.45678764       1.07641320      -0.69551069      -0.45678764       1.07641320     -13.79542942
H       -1.06405170       2.18646537       0.42455631        0      -0.27212292       0.24235828       0.04506076      -2.18044363      -0.48340709       1.41019108      -2.18044363      -0.48340709       1.41019108     -13.96193312
H        0.06453756       3.39026480      -0.03269836        0      -0.15151468       0.05773540       0.35880677       1.61104024      -0.10315560       0.84376858       1.61104024      -0.10315560       0.84376858     -13.99117440
H        1.39751453      -2.43768433       1.21233202        0      -0.28186660      -0.29564256       0.01266026       0.13463457      -0.07760634      -1.66938941       0.13463457      -0.07760634      -1.66938941     -13.80871766
H        0.74680458      -1.93073067       1.31501141        0      -0.61055659       0.22418120      -0.29909844      -0.03294664       0.37238087       2.72862158      -0.03294664       0.37238087       2.72862158     -13.58616597
H       -0.05204565      -2.42577361      -0.41731770        0       0.20972507       0.05794762      -0.12789702       1.21565186      -0.00187038       0.54685839       1.21565186      -0.00187038       0.54685839     -14.21142419
12
Properties=species:S:1:pos:R:3:molID:I:1:momenta:R:3:force_mace:R:3:forces:R:3:energies:R:1 Nmols=1 Comp=DMC(1) energy_mace=-588.049195878058 energy=-588.049195878058 stress="4.6424390395271577e-07 -5.741369999553009e-06 2.6112090359125598e-06 -5.741369999553009e-06 6.991765309113795e-06 4.190163757744776e-06 2.6112090359125598e-06 4.190163757744776e-06 7.093596346315786e-08" free_energy=-588.049195878058 pbc="F F F"
C       -0.11072736       0.01611059      -0.08554819        0       0.62196666       0.08859198      -0.93044635      -1.64925707      -0.45178157       5.14903157      -1.64925707      -0.45178157       5.14903157     -58.98348175
O       -0.74140493      -0.02949473       0.99314408        0      -1.08242197      -0.33901757       1.77049118       1.16884740      -0.15787258      -3.07206429       1.16884740      -0.15787258      -3.07206429    -109.62814338
O        0.34309831       1.14827333      -0.52498055        0       0.41582690       1.76833787      -1.01561881      -0.07582784       2.05724547      -2.48557219      -0.07582784       2.05724547      -2.48557219    -110.14344553
O        0.30172106      -1.41649658      -0.46783743        0       1.92489844       1.59871302      -0.45533282      -0.37342877       2.12404722      -3.02149256      -0.37342877       2.12404722      -3.02149256    -110.57259261
C       -0.43421012       2.46358338      -0.38704226        0      -1.42967158      -1.05398751      -0.13200001       2.11863271      -2.18566068       2.44686813       2.11863271      -2.18566068       2.44686813     -57.82853772
C        0.58612340      -2.21546124       0.40681834        0      -1.78654354      -0.43241756       1.98817103       0.78446865      -3.16311486       3.83652076       0.78446865      -3.16311486       3.83652076     -57.38545040
H       -0.96063665       2.89924221      -1.18508500        0       0.01105928       0.22263573      -0.60770216       0.88671298       0.47054863      -1.77476226       0.88671298       0.47054863      -1.77476226     -14.05347811
H       -1.25043191       2.21197640       0.18672297        0       0.18869127      -0.23177255      -0.32204914      -1.82081150      -1.05510768       1.73177549      -1.82081150      -1.05510768       1.73177549     -13.76658087
H        0.23457536       3.00360783       0.31663225        0       0.37903000      -0.71461666      -0.10118650      -0.33547505       0.42212780      -1.29374293      -0.33547505       0.42212780      -1.29374293     -13.97385312
H        1.22236748      -2.65091613       1.20428221        0       0.23587520      -0.17803382       0.14449986       0.09025902       0.76604306      -1.29344323       0.09025902       0.76604306      -1.29344323     -13.74499691
H        0.55611282      -2.21253561       1.48653449        0       0.08205570      -0.63095562      -0.15913342      -0.68727072       0.38760714      -0.22548781      -0.68727072       0.38760714      -0.22548781     -13.72705702
H        0.28047305      -2.51119001      -0.50408569        0       0.43923364      -0.09747730      -0.17969287      -0.10684981       0.78591805       0.00236932      -0.10684981       0.78591805       0.00236932     -14.24157845
12
Properties=species:S:1:pos:R:3:molID:I:1:momenta:R:3:force_mace:R:3:forces:R:3:energies:R:1 Nmols=1 Comp=DMC(1) energy_mace=-587.8524408959622 energy=-587.8524408959622 stress="2.7354178916818428e-06 3.837468216556421e-06 -4.455811814757254e-06 3.837468216556421e-06 1.1283244749809593e-05 -6.8153338607411955e-06 -4.455811814757254e-06 -6.8153338607411955e-06 -5.6895946448061485e-06" free_energy=-587.8524408959622 pbc="F F F"
C       -0.13890134       0.02863651      -0.00738145        0       0.24371166       0.28075512       2.27493247       3.63672417      -0.70212665      -2.01822912       3.63672417      -0.70212665      -2.01822912     -58.80211702
O       -0.75699027      -0.03960685       0.98198702        0       0.18293218       0.04147460      -1.26923391      -1.06977380       0.60493365       0.63781938      -1.06977380       0.60493365       0.63781938    -110.12762448
O        0.35175056       1.22995328      -0.60538812        0      -0.06668277       0.10618867      -1.52683016      -1.61422725      -4.77298859       0.93462503      -1.61422725      -4.77298859       0.93462503    -110.25229595
O        0.40242645      -1.30981526      -0.47845181        0       0.87197750       1.56733910       0.83491538      -1.19965299       2.14034533       2.75177527      -1.19965299       2.14034533       2.75177527    -110.02758537
C       -0.48470551       2.35073653      -0.38987226        0       0.22923684      -1.78314558       0.16023240       3.11497160      -0.97742496       1.66164716       3.11497160      -0.97742496       1.66164716     -58.15444659
C        0.48637974      -2.32812925       0.51669450        0      -0.97754980      -0.83554978      -0.03731416       0.40764121       2.98300916      -3.11271676       0.40764121       2.98300916      -3.11271676     -57.15091509
H       -0.36040298       2.81952700      -1.28216077        0       0.34553731      -0.19788279      -0.04581332      -1.48917804       1.47776761      -2.95858278      -1.48917804       1.47776761      -2.95858278     -13.64596161
H       -1.37736487       2.02658377       0.09015656        0       0.11150238       0.21413749      -0.37469329      -0.53467099       0.50101439       0.08663640      -0.53467099       0.50101439       0.08663640     -14.09050067
H        0.30674313       2.93606630       0.08196083        0      -0.40752499       0.48177919       0.12704314      -1.01374249       0.89753565       1.49563434      -1.01374249       0.89753565       1.49563434     -13.51800083
H        1.29440780      -2.43121497       1.08670763        0      -0.09859957       0.22656737       0.24374080      -0.13772478      -0.84019272       1.88153249      -0.13772478      -0.84019272       1.88153249     -13.75208653
H        0.39913058      -2.69493268       1.45405983        0      -0.16632288      -0.44310960      -0.26022664       0.53652864       0.53138231      -0.16989773       0.53652864       0.53138231      -0.16989773     -13.90455500
H        0.43179916      -2.18544497      -0.46337737        0      -0.26821787       0.34144621      -0.12675272      -0.63689527      -1.84325519      -1.19024366      -0.63689527      -1.84325519      -1.19024366     -14.42635177
12
Properties=species:S:1:pos:R:3:molID:I:1:momenta:R:3:force_mace:R:3:forces:R:3:energies:R:1 Nmols=1 Comp=DMC(1) energy_mace=-588.1006838269691 energy=-588.1006838269691 stress="3.6020642630041245e-06 4.6890538213415177e-08 -4.7875292779960046e-06 4.6890538213415177e-08 -7.355082235971847e-07 3.432456511060716e-08 -4.7875292779960046e-06 3.432456511060716e-08 1.9783890693869387e-06" free_energy=-588.1006838269691 pbc="F F F"
C       -0.00718693       0.01843184       0.01361602        0       1.70262241      -0.13837081       0.15938557      -3.62109106      -0.27470416       4.20003086      -3.62109106      -0.27470416       4.20003086     -59.32824100
O       -0.80072683      -0.00605268       0.99584190        0      -1.25012806       1.24709596       0.46311521       2.32218061       0.89893698      -2.80258119       2.32218061       0.89893698      -2.80258119    -109.57914827
O        0.32267464       1.10538448      -0.66403029        0      -0.57763116      -3.02304399      -0.31999203       0.88422889       0.00566073       0.43019232       0.88422889       0.00566073       0.43019232    -110.56732814
O        0.42500561      -1.21740471      -0.38290502        0       0.51632804       0.50647629       0.97308428       0.96752035      -0.53483747      -1.82049311       0.96752035      -0.53483747      -1.82049311    -110.45032015
C       -0.36501067       2.28559090      -0.37952260        0       0.56198501       0.08267544       0.38187006      -4.61007608      -0.83711162       0.21279396      -4.61007608      -0.83711162       0.21279396     -57.88349897
C        0.45477087      -2.24792606       0.40881859        0       0.38282163       1.75765948      -1.37212594      -1.54079616      -1.56967265       0.99002522      -1.54079616      -1.56967265       0.99002522     -57.40639376
H       -0.58777448       2.73446483      -1.29342103        0      -0.33231785       0.05844356       0.30223076       0.70863492       1.27023841      -1.59356403       0.70863492       1.27023841      -1.59356403     -13.83452842
H       -1.47993135       2.13902908      -0.06726125        0       0.24325710      -0.27175944      -0.27380496       1.12524187      -1.13393770      -0.19539619       1.12524187      -1.13393770      -0.19539619     -13.49991338
H       -0.32648284       2.99750365       0.39145961        0      -0.27067277      -0.57572347       0.09674593       2.16303179       0.43181524       0.90118990       2.16303179       0.43181524       0.90118990     -13.91055353
H        0.91888572      -2.43817380       1.35240415        0      -0.35333584      -0.02345924      -0.15058297       1.31834686       0.41801278      -0.39890950       1.31834686       0.41801278      -0.39890950     -13.77044127
H        0.22969819      -2.74384401       1.34384628        0      -0.52783764       0.27152789      -0.38032795      -0.75542007       0.42316215      -0.44514606      -0.75542007       0.42316215      -0.44514606     -13.76170169
H        0.06180284      -2.26962020      -0.57884000        0      -0.09509086       0.10847833       0.12040203       1.03819807       0.90243732       0.52185782       1.03819807       0.90243732       0.52185782     -14.10861526
12
Properties=species:S:1:pos:R:3:molID:I:1:momenta:R:3:force_mace:R:3:forces:R:3:energies:R:1 Nmols=1 Comp=DMC(1) energy_mace=-588.3728445456848 energy=-588.3728445456848 stress="-5.736653548057567e-06 2.7239969885396512e-06 1.3508154009659277e-05 2.7239969885396512e-06 -2.3735641365546096e-06 2.8121688844780164e-06 1.3508154009659277e-05 2.8121688844780164e-06 -1.0661082468667725e-05" free_energy=-588.3728445456848 pbc="F F F"
C       -0.01929919       0.00539204       0.19118814        0       0.06767909       0.05840041       1.64260092       5.66350161       0.20424882      -8.44884231       5.66350161       0.20424882      -8.44884231     -58.73687242
O       -0.82981874       0.07289376       0.93723072        0      -1.45752401       0.60632790      -0.07444626      -6.24448894      -0.16739109       7.57366104      -6.24448894      -0.16739109       7.57366104    -110.11383079
O        0.31744698       0.96053488      -0.69024701        0      -0.17776512      -1.26988868      -0.13338115       0.51767401       1.59062255       0.10702831       0.51767401       1.59062255       0.10702831    -109.97765438
O        0.53712493      -1.14775935      -0.36589134        0       2.39491113       2.34292183      -0.63296973       0.58598050       1.94659335       0.11444599       0.58598050       1.94659335       0.11444599    -110.54942496
C       -0.44599625       2.26811186      -0.37790076        0      -1.56095696      -0.55946408      -0.07741729      -0.52547894      -4.94037752       1.49098315      -0.52547894      -4.94037752       1.49098315     -57.95357993
C        0.40836008      -2.19221994       0.35755026        0      -1.15707112      -0.46522434      -0.27668576      -0.21539683      -1.05428210      -0.96660217      -0.21539683      -1.05428210      -0.96660217     -57.55568056
H       -0.39752054       2.94452144      -1.18324129        0       0.62187548      -0.02805029       0.47135832       0.18401265       0.46807635      -0.62184609       0.18401265       0.46807635      -0.62184609     -14.20173242
H       -1.45407349       1.67274857      -0.29427518        0       0.08425076       0.29928044      -0.05539464       1.16001656       3.04165291       0.07532407       1.16001656       3.04165291       0.07532407     -13.61260446
H        0.07014167       2.54163392       0.57624149        0       0.36602605      -0.64816259      -0.38004778      -1.10493710       0.43721807      -0.85379685      -1.10493710       0.43721807      -0.85379685     -13.98086747
H        0.91799815      -2.63802571       1.12261164        0      -0.16036509      -0.46181398      -0.18511226      -1.05583028       0.13028155       0.23491306      -1.05583028       0.13028155       0.23491306     -13.72896027
H       -0.13561423      -2.45200467       1.16631614        0       0.19703267       0.24070730       0.02530364       0.90740626      -0.56546409       0.64270283       0.90740626      -0.56546409       0.64270283     -13.65112384
H        0.37929394      -1.97650120      -0.70334781        0       0.78190711      -0.11503391      -0.32380801       0.12754050      -1.09117880       0.65202897       0.12754050      -1.09117880       0.65202897     -14.31051305
12
Properties=species:S:1:pos:R:3:molID:I:1:momenta:R:3:force_mace:R:3:forces:R:3:energies:R:1 Nmols=1 Comp=DMC(1) energy_mace=-588.0276817570535 energy=-588.0276817570535 stress="2.1435727647778027e-05 -2.7501638626216713e-06 -8.703651608854203e-06 -2.7501638626216713e-06 -6.948514375311021e-06 7.360976009665621e-07 -8.703651608854203e-06 7.360976009665621e-07 1.2192464841127248e-05" free_energy=-588.0276817570535 pbc="F F F"
C        0.00771130       0.00305832       0.13416303        0      -1.09380716      -0.08108730      -0.83409801      -4.44273942       0.29586140       2.39444346      -4.44273942       0.29586140       2.39444346     -59.18767360
O       -0.95301903       0.10413231       1.02477033        0      -0.62391865       0.01070112       0.50238338       5.00526975      -1.16874363      -3.84394601       5.00526975      -1.16874363      -3.84394601    -109.40453854
O        0.32767108       0.95750916      -0.69095192        0      -0.74840679       1.04564277       0.26037787      -2.17043094       1.51970952       0.16082646      -2.17043094       1.51970952       0.16082646    -110.46361753
O        0.66496101      -1.05931463      -0.36525827        0       1.86792483       0.14346127       1.02799945      -1.02882174      -0.65634031       2.59212724      -1.02882174      -0.65634031       2.59212724    -110.52528344
C       -0.47622514       2.12688030      -0.37581868        0       1.23095949      -1.16214004       0.22871548       0.79947710       2.29359060       1.46339301       0.79947710       2.29359060       1.46339301     -57.89384714
C        0.37180307      -2.23200435       0.27235408        0       0.10455078      -0.24422627      -0.91765066       1.23036022       0.66953625       0.71545314       1.23036022       0.66953625       0.71545314     -57.16320390
H       -0.11858667       2.91002495      -1.02107233        0      -0.24702510      -0.54536541       0.15597504      -0.07276257       0.06232855      -0.85160460      -0.07276257       0.06232855      -0.85160460     -13.92210968
H       -1.66083386       2.26173438      -0.33313572        0       0.36092949       0.33843309      -0.13379044       2.75394611      -1.61537663      -0.03758953       2.75394611      -1.61537663      -0.03758953     -13.88515099
H        0.03529732       2.42718196       0.61339350        0      -0.62557722       0.12354164       0.25478253      -1.59693185      -0.19763435      -0.57709348      -1.59693185      -0.19763435      -0.57709348     -13.70223194
H        0.52019211      -2.97904645       0.99725152        0      -0.43518957      -0.21365028      -0.33320481       0.39790810      -0.22182065      -0.75361779       0.39790810      -0.22182065      -0.75361779     -13.85046293
H        0.05397545      -2.40498862       1.31295388        0       0.02958631       0.37335573      -0.34277164      -0.60387205       0.81625289      -0.86087262      -0.60387205       0.81625289      -0.86087262     -13.73314346
H        0.85982183      -1.85981569      -0.59708795        0       0.17997358       0.21133369       0.13128182      -0.27140271      -1.79736363      -0.40151928      -0.27140271      -1.79736363      -0.40151928     -14.29641860
12
Properties=species:S:1:pos:R:3:molID:I:1:momenta:R:3:force_mace:R:3:forces:R:3:energies:R:1 Nmols=1 Comp=DMC(1) energy_mace=-588.1409668673227 energy=-588.1409668673227 stress="-7.182335312223355e-07 2.148220823983996e-06 4.579118378021635e-06 2.148220823983996e-06 -1.3068022813417468e-05 5.820795483527438e-06 4.579118378021635e-06 5.820795483527438e-06 -1.6945935521432849e-06" free_energy=-588.1409668673227 pbc="F F F"
C       -0.16068581       0.03001787       0.15526796        0      -1.25656085       0.25504072      -0.47795278       5.88875206      -0.62556499      -5.19349843       5.88875206      -0.62556499      -5.19349843     -58.74710066
O       -0.94363226       0.06373649       0.95948439        0      -0.53952221      -1.30039008      -0.91597517      -4.31686667      -0.78620740       4.56118967      -4.31686667      -0.78620740       4.56118967    -110.20280614
O        0.26093582       0.99338288      -0.64481406        0      -0.77440193      -0.42738401       1.99289595       1.39849812      -2.58394218       0.78218984       1.39849812      -2.58394218       0.78218984    -110.75056974
O        0.76216692      -1.04473361      -0.28120145        0       1.39958737       0.21369997       1.19352964      -1.05257532       0.58673272       0.08417332      -1.05257532       0.58673272       0.08417332    -110.44422168
C       -0.37291845       2.11431344      -0.33984644        0       0.42069133       1.18325833      -0.92809315      -4.51111367       2.44274133      -1.61719459      -4.51111367       2.44274133      -1.61719459     -58.00760176
C        0.45138624      -2.19653819       0.19637254        0       1.54725713       0.36815042      -0.84963100      -0.36424692      -0.17373089       0.97803261      -0.36424692      -0.17373089       0.97803261     -57.22152837
H       -0.04208035       2.73676157      -1.20378155        0      -0.03684916      -0.12830646       0.42837201      -0.44166189       0.67511071       1.28266005      -0.44166189       0.67511071       1.28266005     -13.72856234
H       -1.61423645       1.86186759      -0.53904589        0       0.02420744      -0.46196420      -0.21987152       2.26913276       0.93599120       0.33902103       2.26913276       0.93599120       0.33902103     -13.29391009
H       -0.44237072       2.49794613       0.71395345        0       0.03885155       0.25365772       0.11694215       0.89788678      -0.28987843      -0.96780710       0.89788678      -0.28987843      -0.96780710     -13.95107103
H        0.11828792      -3.02175592       0.65584024        0      -0.54958367       0.12797848      -0.19263088      -0.61427414      -1.27510929       0.83623310      -0.61427414      -1.27510929       0.83623310     -13.83154794
H        0.01880608      -2.37887035       1.22438263        0      -0.04325014      -0.39211563       0.05620740       0.53531049       0.15472015      -0.92998552       0.53531049       0.15472015      -0.92998552     -13.61227609
H        0.86790390      -1.96801656      -0.68524293        0      -0.23042684       0.30837475      -0.20379265       0.31115843       0.93913707      -0.15501397       0.31115843       0.93913707      -0.15501397     -14.34977102
12
Properties=species:S:1:pos:R:3:molID:I:1:momenta:R:3:force_mace:R:3:forces:R:3:energies:R:1 Nmols=1 Comp=DMC(1) energy_mace=-588.7596039824514 energy=-588.7596039824514 stress="3.6128620384411516e-06 7.522587589558247e-07 -1.4989670443613793e-06 7.522587589558247e-07 -4.7342839832636294e-06 3.1459012489398852e-06 -1.4989670443613793e-06 3.1459012489398852e-06 4.206810146682278e-06" free_energy=-588.7596039824514 pbc="F F F"
C       -0.15086907      -0.03206158       0.05919780        0      -0.10599795      -1.66651700       0.14817248      -2.07850911      -0.26482240       4.07408459      -2.07850911      -0.26482240       4.07408459     -59.16483741
O       -1.02714628      -0.05732829       0.93711469        0      -0.99944605      -2.33217822      -1.58697548       1.89826132      -0.28681492      -2.68552955       1.89826132      -0.28681492      -2.68552955    -109.80381899
O        0.30900479       0.96787504      -0.56545845        0       1.74804943       0.95670669       0.26869572      -0.04410095       3.78792548      -2.25629645      -0.04410095       3.78792548      -2.25629645    -110.39358334
O        0.78389488      -0.98165875      -0.19902417        0      -0.52047613       1.07130783       1.22164305       0.00259238      -1.60001201      -0.87803572       0.00259238      -1.60001201      -0.87803572    -110.47685372
C       -0.43680456       2.22433803      -0.41803022        0      -0.35720284       2.08671159      -1.11991953       0.89596301       0.93440556       0.51927201       0.89596301       0.93440556       0.51927201     -58.01624209
C        0.49192162      -2.19054892       0.21134249        0       0.44072452       0.02741678       0.13008388       1.97562146       0.99154538      -2.43776226       1.97562146       0.99154538      -2.43776226     -57.39641527
H       -0.01473736       3.18211413      -0.93857776        0      -0.11164982      -0.07999105       0.41345831      -0.65222830      -2.27686741      -0.18503757      -0.65222830      -2.27686741      -0.18503757     -13.89826060
H       -1.50268926       2.00697191      -0.60174068        0      -0.67612914       0.42160048      -0.07937698       0.59333888       0.45638765       0.02280286       0.59333888       0.45638765       0.02280286     -14.03593510
H       -0.21510401       2.51562705       0.61131749        0       0.16163193      -0.20583220       0.20570217      -0.73985078      -0.14260600       0.41626931      -0.73985078      -0.14260600       0.41626931     -13.84042804
H       -0.21802650      -2.85661569       0.34704425        0      -0.28735982       0.33516916      -0.18196861      -0.97379848      -0.67640602       1.56566468      -0.97379848      -0.67640602       1.56566468     -13.74811234
H        0.33353003      -2.54114856       1.14892364        0       0.33263515      -0.38860381       0.03288543      -0.50732138      -0.93983040      -0.26907903      -0.50732138      -0.93983040      -0.26907903     -13.76180441
H        0.99214666      -1.77550725      -0.73481842        0       0.37522072      -0.22579025       0.54759955      -0.36996805       0.01709509       2.11364714      -0.36996805       0.01709509       2.11364714     -14.22331267
12
Properties=species:S:1:pos:R:3:molID:I:1:momenta:R:3:force_mace:R:3:forces:R:3:energies:R:1 Nmols=1 Comp=DMC(1) energy_mace=-588.68013993153 energy=-588.68013993153 stress="1.00430949374054e-06 -7.023242366388299e-07 -2.2440255529719275e-06 -7.023242366388299e-07 7.469323704399785e-06 -5.5378498947782264e-06 -2.2440255529719275e-06 -5.5378498947782264e-06 -4.6695164215263164e-07" free_energy=-588.68013993153 pbc="F F F"
C       -0.17520509      -0.05868170       0.12223266        0       0.63860519       0.87324157       0.11609842       3.57300648       2.40697484      -2.67020167       3.57300648       2.40697484      -2.67020167     -59.01593445
O       -1.09128003      -0.19320563       0.81158083        0      -1.71161220      -2.01256413      -1.70139224      -2.24363551       0.15375245       1.21439838      -2.24363551       0.15375245       1.21439838    -110.14545279
O        0.36958679       1.06489668      -0.57676751        0      -0.41315023       1.74107259       0.07551612      -3.57366445      -0.08823106       1.32614420      -3.57366445      -0.08823106       1.32614420    -109.89317946
O        0.76624543      -0.99210085      -0.13018576        0       0.12114764      -0.78738426       0.97932446       0.90628360       0.50179524      -0.35526567       0.90628360       0.50179524      -0.35526567    -110.55154886
C       -0.44015963       2.34478929      -0.39691758        0       1.51737854       0.60836556       0.71880307       2.47681499      -0.51779885      -1.60908891       2.47681499      -0.51779885      -1.60908891     -57.98691719
C        0.52012598      -2.22507459       0.19062136        0       0.64505391      -0.72870093      -0.49607041       2.26305369       0.57304313       0.08849656       2.26305369       0.57304313       0.08849656     -57.34305022
H        0.13213998       3.11786027      -1.07943428        0       0.09849875      -0.42825356      -0.17086055      -1.07054004      -1.45291390       1.88495993      -1.07054004      -1.45291390       1.88495993     -13.94766316
H       -1.48723388       2.39620600      -0.63473587        0      -0.39046028       0.18548076      -0.22678733      -0.20239776      -0.97518706      -1.04156391      -0.20239776      -0.97518706      -1.04156391     -14.02844207
H       -0.48531038       2.42531794       0.66057256        0      -0.32646661       0.29212317       0.15317041       0.73222099       0.97336072       1.05989013       0.73222099       0.97336072       1.05989013     -13.94126952
H       -0.30485544      -2.64818999       0.56505969        0      -0.00824599       0.00471989       0.49537134      -1.32004609      -0.80879919      -0.00792195      -1.32004609      -0.80879919      -0.00792195     -13.73273089
H        0.45282883      -2.93499067       0.92533889        0      -0.33311919      -0.28696096      -0.11989254      -0.08851105      -0.14136443       0.32201298      -0.08851105      -0.14136443       0.32201298     -13.83279816
H        1.38409379      -1.64704412      -0.21084467        0       0.16237045       0.53886031       0.17671927      -1.45258486      -0.62463189      -0.21186006      -1.45258486      -0.62463189      -0.21186006     -14.26115314
12
Properties=species:S:1:pos:R:3:molID:I:1:momenta:R:3:force_mace:R:3:forces:R:3:energies:R:1 Nmols=1 Comp=DMC(1) energy_mace=-588.5365079244185 energy=-588.5365079244185 stress="-2.085489147782021e-06 1.7494522514121042e-06 -4.284612460300162e-06 1.7494522514121042e-06 8.182274319259376e-06 -1.5931116293537379e-06 -4.284612460300162e-06 -1.5931116293537379e-06 -3.3071646954855684e-07" free_energy=-588.5365079244185 pbc="F F F"
C       -0.11607582       0.04507291       0.14315483        0      -0.43588335       0.90869286       0.91330294      -2.87159559      -1.87478629       0.17473101      -2.87159559      -1.87478629       0.17473101     -59.10384435
O       -1.16797233      -0.30287665       0.69689487        0      -0.21845876      -1.21724569      -2.57716146       2.77831435       1.90730733      -1.20105282       2.77831435       1.90730733      -1.20105282    -109.73894142
O        0.28718262       1.13533956      -0.54238828        0      -1.97414909       0.34213544       1.34374107      -0.01808635      -1.57001061       1.74966795      -0.01808635      -1.57001061       1.74966795    -110.44201997
O        0.78476586      -1.00724394      -0.11344918        0       0.60890894       0.29445640      -0.20537275       1.77206276       0.15696751      -0.28941269       1.77206276       0.15696751      -0.28941269    -110.34732660
C       -0.39301878       2.36796881      -0.34550796        0       0.62362649       0.03308593       0.60165405       5.12334532       1.67070485      -1.13164444       5.12334532       1.67070485      -1.13164444     -58.02949775
C        0.56231279      -2.26914727       0.21711015        0       0.59322752      -0.83701796       0.83130818      -1.46994337       0.78914645       0.38196926      -1.46994337       0.78914645       0.38196926     -57.14190663
H        0.33078493       3.11267137      -0.96297464        0       0.34281670       0.42128178       0.14118791      -1.54219984      -1.27945984       1.00874955      -1.54219984      -1.27945984       1.00874955     -13.61154179
H       -1.24834614       2.28983557      -0.86663640        0      -0.10668480      -0.18421435      -0.40346525      -3.36675163       0.21573630      -1.04436273      -3.36675163       0.21573630      -1.04436273     -13.96452681
H       -0.32786063       2.77837168       0.64392128        0       0.32156048       0.37580394      -0.31327745      -0.57623781      -0.44044887       0.63389154      -0.57623781      -0.44044887       0.63389154     -14.10318637
H       -0.28452175      -2.59446321       0.70185036        0       0.18661208       0.19695282      -0.08270526      -0.82839337      -0.55816445       0.10592575      -0.82839337      -0.55816445       0.10592575     -13.78246237
H        0.43702880      -3.08520194       0.80727029        0       0.14611026      -0.21985476       0.08429551      -0.12653012      -0.79590844       0.95743690      -0.12653012      -0.79590844       0.95743690     -13.86840552
H        1.30092070      -1.85928767      -0.18513078        0      -0.08768647      -0.11407642      -0.33350752       1.12601564       1.77891606      -1.34589928       1.12601564       1.77891606      -1.34589928     -14.40284835
12
Properties=species:S:1:pos:R:3:molID:I:1:momenta:R:3:force_mace:R:3:forces:R:3:energies:R:1 Nmols=1 Comp=DMC(1) energy_mace=-588.7750845544542 energy=-588.7750845544542 stress="-9.690786223264053e-06 -1.0116882558448085e-06 -3.002040103965117e-06 -1.0116882558448085e-06 7.71087938216375e-06 -1.1793764017631626e-06 -3.002040103965117e-06 -1.1793764017631626e-06 2.2473865316787864e-07" free_energy=-588.7750845544542 pbc="F F F"
C       -0.15174749       0.04970200       0.16773889        0       0.31626327      -0.71756373      -0.37529672       0.97225812      -2.46608475      -1.30106648       0.97225812      -2.46608475      -1.30106648     -58.88428979
O       -1.17387769      -0.35447422       0.54076976        0      -1.38185530      -0.63265570      -1.48172933      -2.40077089      -0.24610327       1.66777205      -2.40077089      -0.24610327       1.66777205    -110.03211899
O        0.21831440       1.12267285      -0.40206711        0      -0.64805069      -0.16029035       2.48072859       2.68920526       1.27773947      -1.07294366       2.68920526       1.27773947      -1.07294366    -110.43396872
O        0.86042738      -0.98963306      -0.13593135        0       0.88528164       0.21655310      -0.24750142      -0.41233570      -0.33710317       1.09007745      -0.41233570      -0.33710317       1.09007745    -110.25736936
C       -0.31573546       2.41456428      -0.34948388        0       0.68972620       0.61993770       0.57718275       0.91853741       1.12674216       1.67060325       0.91853741       1.12674216       1.67060325     -58.05388256
C        0.57091450      -2.26095366       0.25617765        0      -0.04134205       1.13842862      -0.37056291      -1.20645887       0.78159239      -1.65399331      -1.20645887       0.78159239      -1.65399331     -57.40845181
H        0.28007346       3.13907984      -0.95649034        0       0.37954470       0.08714201      -0.66411430      -0.10003132      -0.86367905       0.83266602      -0.10003132      -0.86367905       0.83266602     -14.01711999
H       -1.26866394       2.41241758      -0.69637462        0       0.25099091       0.15139349       0.29146361      -3.05177597      -0.24680598      -1.82821684      -3.05177597      -0.24680598      -1.82821684     -13.80102541
H       -0.54968790       2.75146250       0.69209178        0      -0.49354165      -0.52476137      -0.13997563       1.17398820      -0.15447572      -0.26971150       1.17398820      -0.15447572      -0.26971150     -13.88289279
H       -0.31393929      -2.79947028       0.64227027        0       0.11178937      -0.17112661      -0.30214949       0.20624217       0.97023510      -0.78456594       0.20624217       0.97023510      -0.78456594     -13.75479957
H        0.39976301      -2.97085732       1.00608774        0       0.29880652       0.29269693       0.44753036       1.27858015       0.28410194       0.70237831       1.27858015       0.28410194       0.70237831     -13.88935983
H        1.05961386      -1.83329772      -0.61199463        0      -0.36761292      -0.29975408      -0.21557552      -0.06743855      -0.12615913       0.94700067      -0.06743855      -0.12615913       0.94700067     -14.35980572
12
Properties=species:S:1:pos:R:3:molID:I:1:momenta:R:3:force_mace:R:3:forces:R:3:energies:R:1 Nmols=1 Comp=DMC(1) energy_mace=-589.0986729112904 energy=-589.0986729112904 stress="2.484482495351842e-06 -1.4359014491567963e-08 2.5538428315567544e-06 -1.4359014491567963e-08 -2.077287446382638e-06 1.9835505738354486e-06 2.5538428315567544e-06 1.9835505738354486e-06 3.2983409746792887e-06" free_energy=-589.0986729112904 pbc="F F F"
C       -0.15603064      -0.06350698       0.10860189        0      -1.15435339      -1.46316078      -1.43709265      -2.47016553       0.69308798      -0.05367192      -2.47016553       0.69308798      -0.05367192     -59.11555645
O       -1.26531519      -0.39642247       0.45435039        0      -0.72960677      -1.24338870      -1.14657987       1.32877507       0.43239868      -0.13483303       1.32877507       0.43239868      -0.13483303    -109.93699706
O        0.25916448       1.12860101      -0.25400645        0       1.91616974       0.10397099       1.85066470       1.69190929      -0.15651386      -0.76790650       1.69190929      -0.15651386      -0.76790650    -110.20188131
O        0.89264055      -0.98017778      -0.14450633        0       0.20093741       1.48194715      -0.37616670      -0.73962875       1.83618422      -0.54777710      -0.73962875       1.83618422      -0.54777710    -110.60213931
C       -0.31337305       2.45678053      -0.29871062        0      -2.13465320      -0.39169231       1.31419000      -1.53118545      -1.86381719       1.53892211      -1.53118545      -1.86381719       1.53892211     -58.07159034
C        0.55941939      -2.17242334       0.19365688        0      -0.36289641       0.64497253      -0.65847989      -0.41958807      -1.81088868      -0.17001208      -0.41958807      -1.81088868      -0.17001208     -57.37225979
H        0.42962638       2.98820636      -0.81858867        0       0.74928798       0.32370260       0.18802011       0.73932669       0.81845128      -0.25394483       0.73932669       0.81845128      -0.25394483     -13.95875894
H       -1.25911317       2.43822828      -0.90812926        0       0.86031416      -0.14821318       0.02694849       0.66422694       0.01624420       0.94082885       0.66422694       0.01624420       0.94082885     -14.03049384
H       -0.40638875       2.71158452       0.80275997        0       0.59056398       0.27613273      -0.07408661      -0.31727408       0.31434309      -1.50974985      -0.31727408       0.31434309      -1.50974985     -13.96075240
H       -0.10158556      -2.85744728       0.65258791        0       0.06434867      -0.03875729       0.54816419       0.51707756       0.75311804       0.24822069       0.51707756       0.75311804       0.24822069     -13.79345122
H        0.62770765      -2.56354351       1.13818515        0       0.02303403       0.13734575       0.10463744      -0.08853364      -1.10881222       0.44280804      -0.08853364      -1.10881222       0.44280804     -13.75337856
H        0.81521995      -1.79973790      -0.73323947        0      -0.02314622       0.31714050      -0.34021921       0.62505997       0.07620446       0.26711562       0.62505997       0.07620446       0.26711562     -14.30141370
12
Properties=species:S:1:pos:R:3:molID:I:1:momenta:R:3:force_mace:R:3:forces:R:3:energies:R:1 Nmols=1 Comp=DMC(1) energy_mace=-588.6928936918946 energy=-588.6928936918946 stress="-2.622216746782708e-06 1.7524319696428514e-06 3.844843451045273e-06 1.7524319696428514e-06 1.0835615019787326e-07 4.7192284473183396e-06 3.844843451045273e-06 4.7192284473183396e-06 4.370301329267459e-06" free_energy=-588.6928936918946 pbc="F F F"
C       -0.25248439      -0.05867203       0.01807256        0      -0.12303687       1.62334492      -1.30322793       1.50208310       0.59402909       0.52133584       1.50208310       0.59402909       0.52133584     -58.98154305
O       -1.29044976      -0.47470983       0.39679436        0      -1.12608588      -1.27311078      -0.67051387      -0.58445132       0.80047470      -0.34169570      -0.58445132       0.80047470      -0.34169570    -110.08763958
O        0.35127356       1.12605755      -0.14624775        0       0.76533841      -0.44100706       1.66259236      -1.13377487       0.26064659       0.59272070      -1.13377487       0.26064659       0.59272070    -110.37084604
O        0.88459512      -0.85201416      -0.16717972        0      -0.54530009       1.27402541      -0.28593536      -1.59108507      -2.66005518       0.23283931      -1.59108507      -2.66005518       0.23283931    -110.33171431
C       -0.31193681       2.37407797      -0.22145755        0       0.55785849      -1.41468636       0.28125013      -2.93747282       0.17647749       0.79624445      -2.93747282       0.17647749       0.79624445     -58.06704428
C        0.54887728      -2.18059366       0.15077200        0       0.70535030      -0.27146133       0.02524462       2.63972429       2.14479063      -0.09225715       2.63972429       2.14479063      -0.09225715     -57.32097745
H        0.40804832       2.94727878      -0.61944177        0       0.00882963       0.28501659      -0.24349259       2.66150404       2.20166987      -1.88300244       2.66150404       2.20166987      -1.88300244     -13.67459485
H       -1.17061390       2.33043467      -1.00485284        0       0.08652691      -0.08273261       0.47847963       0.83884700      -0.04759929       1.75480651       0.83884700      -0.04759929       1.75480651     -13.94571018
H       -0.51315975       3.02587792       0.76139950        0      -0.75585635      -0.04193634       0.10994829      -0.32181533      -2.30617265      -1.37818325      -0.32181533      -2.30617265      -1.37818325     -13.83731689
H        0.00866128      -2.65878921       0.85847643        0      -0.06651521       0.41050628      -0.23075290      -1.31327274      -0.34105315       0.17809549      -1.31327274      -0.34105315       0.17809549     -13.87402171
H        0.82148731      -2.58302775       1.10394426        0       0.37966675       0.04278495      -0.25223848       0.41530700      -0.38489541      -0.33956694       0.41530700      -0.38489541      -0.33956694     -13.84275747
H        0.93741888      -1.72371671      -0.70018380        0       0.11322391      -0.11074367       0.42864611      -0.17559329      -0.43831270      -0.04133684      -0.17559329      -0.43831270      -0.04133684     -14.35872788
12
Properties=species:S:1:pos:R:3:molID:I:1:momenta:R:3:force_mace:R:3:forces:R:3:energies:R:1 Nmols=1 Comp=DMC(1) energy_mace=-588.4379923755813 energy=-588.4379923755813 stress="3.1964796412488256e-06 -1.2741496913865335e-06 3.0208240223812182e-06 -1.2741496913865335e-06 -7.776604242936542e-06 2.330416500240738e-06 3.0208240223812182e-06 2.330416500240738e-06 4.702598648019746e-06" free_energy=-588.4379923755813 pbc="F F F"
C       -0.27758771      -0.01732178      -0.02914653        0      -0.75014658      -0.68620523       0.14074784      -0.13554656      -1.80851003       1.75094270      -0.13554656      -1.80851003       1.75094270     -58.94278698
O       -1.32561856      -0.53365136       0.29757055        0       0.78467902      -0.41313007      -2.30723638       0.93783233       2.14772169      -0.91354136       0.93783233       2.14772169      -0.91354136    -109.87353369
O        0.38696789       1.14616238      -0.03265978        0      -0.39648078       1.27084238       1.93720701      -1.33614766       0.55713311      -0.58244297      -1.33614766       0.55713311      -0.58244297    -110.38339582
O        0.81798078      -0.86693304      -0.16336147        0      -0.74475157      -0.74234574       0.26884846       1.22257817      -0.05180974      -0.78531948       1.22257817      -0.05180974      -0.78531948    -110.41906907
C       -0.29214542       2.38186687      -0.18599342        0      -0.70670981       0.58100151       0.01682543      -8.17395964      -5.32409320       3.03104278      -8.17395964      -5.32409320       3.03104278     -57.99700295
C        0.65765554      -2.13350787       0.13851499        0       1.73490780       1.31392430      -0.67978147       1.45882970       0.61188558      -0.87821669       1.45882970       0.61188558      -0.87821669     -57.55843250
H        0.27507870       3.02587503      -0.57109425        0      -0.05795449      -0.12261570       0.15976918       4.70279778       5.20475725      -2.43965717       4.70279778       5.20475725      -2.43965717     -13.82327669
H       -1.25520018       2.24813113      -0.93188133        0       0.20743343      -0.29431495      -0.13562075       1.93398882       0.04564257       1.27791965       1.93398882       0.04564257       1.27791965     -13.68907430
H       -0.85844151       2.61478602       0.81951577        0      -0.01332835      -0.17785880       0.63346804       1.36273117      -0.01073011      -1.62296456       1.36273117      -0.01073011      -1.62296456     -13.88862051
H        0.02539887      -2.52367811       0.82242654        0       0.34603418      -0.23745584       0.09936578      -0.10361177      -1.04252648       0.42213319      -0.10361177      -1.04252648       0.42213319     -13.75393528
H        0.93263977      -2.78674688       0.90271580        0      -0.31602071      -0.54443096      -0.13926283      -0.80127718       0.41983016      -0.18109287      -0.80127718       0.41983016      -0.18109287     -13.84063741
H        1.16054351      -1.59204770      -0.70544388        0      -0.08766215       0.05258911       0.00566969      -1.06821515      -0.74930079       0.92119678      -1.06821515      -0.74930079       0.92119678     -14.26822718
12
Properties=species:S:1:pos:R:3:molID:I:1:momenta:R:3:force_mace:R:3:forces:R:3:energies:R:1 Nmols=1 Comp=DMC(1) energy_mace=-588.8994398222974 energy=-588.8994398222974 stress="1.1359570813903503e-06 3.698348534488168e-06 2.475108574551779e-06 3.698348534488168e-06 3.8102896492187863e-06 2.606014814556585e-06 2.475108574551779e-06 2.606014814556585e-06 4.006151360486661e-06" free_energy=-588.8994398222974 pbc="F F F"
C       -0.23952570      -0.07001861       0.01703608        0       1.71394319       0.31776609       0.46318596      -0.92955353       0.86550965       0.30465662      -0.92955353       0.86550965       0.30465662     -59.13635805
O       -1.34678633      -0.49846465       0.15343463        0      -1.30489301       0.90175113      -2.14065511       0.58309443       0.70121017      -0.07368315       0.58309443       0.70121017      -0.07368315    -109.95531521
O        0.30287395       1.18864503       0.04308045        0      -1.54411791      -0.08484604       1.15693384       0.51340052      -2.04974642      -0.32603564       0.51340052      -2.04974642      -0.32603564    -110.29031024
O        0.83509199      -0.88550827      -0.15880162        0       1.26274574      -0.27327431      -0.20773841       2.06816510      -0.05976202      -0.71566859       2.06816510      -0.05976202      -0.71566859    -110.47852891
C       -0.38463686       2.39197684      -0.12266888        0      -0.24859997       0.06497464       0.35396697      -0.40144766       0.38078862      -1.22251230      -0.40144766       0.38078862      -1.22251230     -58.19754748
C        0.77765976      -2.15561236       0.13567751        0       0.62725500      -1.29025908      -0.06646099      -0.81091177       0.60680945      -1.95809990      -0.81091177       0.60680945      -1.95809990     -57.33502124
H        0.35788250       3.17034702      -0.39047007        0      -0.70886768      -0.45526499       0.36901112      -0.20790664      -0.66302308      -0.57118930      -0.20790664      -0.66302308      -0.57118930     -13.87778002
H       -1.16395039       2.25423146      -0.98948255        0      -0.28185524       0.35409015      -0.10531050       1.01991010       0.61513778       1.98882853       1.01991010       0.61513778       1.98882853     -13.91226572
H       -0.61505498       2.70814389       0.88951621        0      -0.17278487       0.62297810       0.47166444      -1.38314762       0.00023668       0.05322866      -1.38314762       0.00023668       0.05322866     -13.89231664
H        0.20727209      -2.62432074       0.86328124        0       0.26641237      -0.02121078      -0.04588825       0.72583253      -0.81451435      -0.26335105       0.72583253      -0.81451435      -0.26335105     -13.74172070
H        0.98749310      -3.07384162       0.49500920        0       0.53416238      -0.41610534      -0.21780994      -0.41095900      -0.17028922       1.39938804      -0.41095900      -0.17028922       1.39938804     -13.81724933
H        1.09159630      -1.64439491      -0.77297682        0      -0.14339998       0.27940043      -0.03089913      -0.76647645       0.58764275       1.38443809      -0.76647645       0.58764275       1.38443809     -14.26502628
12
Properties=species:S:1:pos:R:3:molID:I:1:momenta:R:3:force_mace:R:3:forces:R:3:energies:R:1 Nmols=1 Comp=DMC(1) energy_mace=-588.1769776532622 energy=-588.1769776532622 stress="4.189538051985307e-06 -4.001249433396705e-06 -6.435378352565104e-07 -4.001249433396705e-06 1.55847728882587e-05 -6.371900954837158e-06 -6.435378352565104e-07 -6.371900954837158e-06 -2.1471431542216522e-06" free_energy=-588.1769776532622 pbc="F F F"
C       -0.23671857      -0.06699888       0.05575024        0      -1.14463188      -0.41184163       0.26161005       2.82230247       0.67681466      -0.93194168       2.82230247       0.67681466      -0.93194168     -58.98869208
O       -1.33058759      -0.43245624       0.01329635        0       1.37543075       1.15844692      -2.36782730      -2.57915032      -1.45176547       0.19616970      -2.57915032      -1.45176547       0.19616970    -110.06519785
O        0.22864087       1.16116895       0.13015398        0      -1.03235544       0.57451544       1.69148640       0.40823237       0.96961717      -0.08719861       0.40823237       0.96961717      -0.08719861    -110.23246464
O        0.95224058      -0.88696408      -0.16422246        0       2.34860043       0.35470306      -0.13166291      -1.00429062      -0.85559936       1.01656036      -1.00429062      -0.85559936       1.01656036    -110.41045800
C       -0.48848214       2.42555495      -0.01985867        0      -0.56965562       0.51819371       0.84485750       2.63228964      -0.05051917      -4.27748553       2.63228964      -0.05051917      -4.27748553     -57.90563234
C        0.81059047      -2.22817997       0.05057200        0       0.03293354      -1.03766440      -0.63395685      -0.25066046      -1.14062152       1.05379692      -0.25066046      -1.14062152       1.05379692     -57.29479222
H        0.43199396       3.15735051      -0.41920534        0      -0.23364547      -0.47210873       0.18805676      -2.94488483      -1.64802419       1.31685040      -2.94488483      -1.64802419       1.31685040     -13.69051088
H       -1.40726765       2.49802714      -0.67380766        0      -0.55913146      -0.12275386       0.13307438       1.69650904      -0.94469815      -0.42519820       1.69650904      -0.94469815      -0.42519820     -13.82666653
H       -1.03388768       2.69814976       0.77499266        0      -0.57419138      -0.25674491       0.26801681      -0.60764549       1.01805841       3.66219803      -0.60764549       1.01805841       3.66219803     -13.86232784
H        0.48265390      -2.92871825       0.90508725        0      -0.00781667       0.03875424      -0.07833767      -0.43735072       2.01585544      -1.33064873      -0.43735072       2.01585544      -1.33064873     -13.71979810
H        1.18718396      -3.08894158       0.54788796        0       0.44551406      -0.04938089       0.21513704       0.79871255       0.46714277      -0.14800425       0.79871255       0.46714277      -0.14800425     -13.86857703
H        0.98438435      -1.78183251      -0.80801276        0      -0.08105086      -0.29411896      -0.39045421      -0.53406364       0.94373942      -0.04509842      -0.53406364       0.94373942      -0.04509842     -14.31186014
12
Properties=species:S:1:pos:R:3:molID:I:1:momenta:R:3:force_mace:R:3:forces:R:3:energies:R:1 Nmols=1 Comp=DMC(1) energy_mace=-588.186625709488 energy=-588.186625709488 stress="1.625072283609671e-05 6.912318305588355e-06 2.0112401344657135e-07 6.912318305588355e-06 8.899454438695725e-06 5.640293866383967e-07 2.0112401344657135e-07 5.640293866383967e-07 -1.264789121978743e-06" free_energy=-588.186625709488 pbc="F F F"
C       -0.16951681      -0.05768699       0.03336314        0       1.30943724       0.27936889      -1.01609410      -3.22804733      -0.37646644      -0.84465138      -3.22804733      -0.37646644      -0.84465138     -59.11211744
O       -1.36403983      -0.40349461      -0.09504042        0       0.14761582       0.31118348      -1.20838856       4.14617132       0.38304687       0.46247411       4.14617132       0.38304687       0.46247411    -109.67618473
O        0.19052121       1.19084994       0.21341475        0       0.17801771       0.56243935       1.54684006       2.14737559      -0.62231562       0.53843918       2.14737559      -0.62231562       0.53843918    -110.28964215
O        1.04505777      -0.88527427      -0.14426686        0      -0.28190632      -0.64606593       0.85715042      -3.35386625      -0.66678852       0.14427110      -3.35386625      -0.66678852       0.14427110    -110.38068974
C       -0.61233248       2.38126123       0.05030902        0      -1.47108330      -1.38933391       1.02891860       2.88908771      -1.67933925      -4.54265459       2.88908771      -1.67933925      -4.54265459     -57.98819550
C        0.84205657      -2.26325394      -0.02839903        0       0.75343391       0.94177895      -1.29476896      -0.89342278       2.33511967       1.51394339      -0.89342278       2.33511967       1.51394339     -57.44175307
H        0.28720180       3.12043042      -0.25464877        0      -0.64570912       0.03953497       0.11650688      -2.56301975      -1.16557093       0.35068958      -2.56301975      -1.16557093       0.35068958     -13.68874668
H       -1.29062964       2.01995406      -0.81672366        0       0.12838503      -0.37791373      -0.55714082       0.47848474       1.65037565       1.66489928       0.47848474       1.65037565       1.66489928     -13.85325314
H       -0.89592971       2.57413102       1.00357105        0       0.37284833       0.05843313      -0.04389186      -1.74992428       1.07624850       2.23251690      -1.74992428       1.07624850       2.23251690     -13.96863565
H        0.42871743      -2.81657989       0.87940129        0       0.05872279      -0.01497911       0.14455946       1.16483305       1.16371398      -1.70246900       1.16483305       1.16371398      -1.70246900     -13.77131086
H        1.33956677      -2.68803524       0.72401910        0      -0.32432910       0.27959167       0.34233897       0.35309997      -1.84973633       1.16386217       0.35309997      -1.84973633       1.16386217     -13.80920605
H        0.72929327      -1.71368473      -0.83609758        0      -0.22543299      -0.04403774       0.08396991       0.60922801      -0.24828758      -0.98132072       0.60922801      -0.24828758      -0.98132072     -14.20689069
12
Properties=species:S:1:pos:R:3:molID:I:1:momenta:R:3:force_mace:R:3:forces:R:3:energies:R:1 Nmols=1 Comp=DMC(1) energy_mace=-588.9627079804001 energy=-588.9627079804001 stress="-1.2654414965242765e-06 -1.6788838817061112e-06 2.993246666422865e-07 -1.6788838817061112e-06 5.5606659561355995e-06 -1.5260097849597462e-08 2.993246666422865e-07 -1.5260097849597462e-08 5.7325013346462325e-06" free_energy=-588.9627079804001 pbc="F F F"
C       -0.16195412      -0.03592826      -0.03761828        0      -0.20201156      -0.12074696      -1.04802508       3.13264197       0.86126406       0.83609496       3.13264197       0.86126406       0.83609496     -59.03767704
O       -1.26078520      -0.38375616      -0.14374740        0       2.22669164       0.07605086      -0.60176975      -2.59052154      -0.79331812      -0.41153635      -2.59052154      -0.79331812      -0.41153635    -110.13584922
O        0.29040806       1.20957596       0.28371004        0       2.52596419       0.09746113       1.48177058      -0.77040046      -0.71870568      -1.14129814      -0.77040046      -0.71870568      -1.14129814    -110.45866715
O        0.95811337      -0.86058466      -0.13903201        0      -1.61896061       1.19198481      -0.73814683       0.39058312       0.93014133      -0.79020085       0.39058312       0.93014133      -0.79020085    -110.58087334
C       -0.70894131       2.16310701       0.10154476        0      -1.17272676      -1.97087417       0.96070334      -1.04557780       4.63904793      -0.21576082      -1.04557780       4.63904793      -0.21576082     -58.02347137
C        0.87422735      -2.15212440      -0.02265623        0      -0.00856607       1.41898345       0.54989945      -1.66512718      -0.71534874      -0.75508056      -1.66512718      -0.71534874      -0.75508056     -57.73208523
H       -0.35227753       3.28062501      -0.25124277        0      -0.24324374      -0.05148417       0.08859657       0.37219364      -2.62999393       0.59107889       0.37219364      -2.62999393       0.59107889     -13.62429479
H       -1.50925220       2.03256841      -0.68507708        0      -0.93208963      -0.17025299       0.21345108       0.84524940      -0.93806545       0.99576581       0.84524940      -0.93806545       0.99576581     -13.93132062
H       -1.16944857       2.49545744       1.07561541        0      -0.37610629      -0.47391755      -0.44830000       0.11469144      -1.00760703      -0.72026862       0.11469144      -1.00760703      -0.72026862     -13.93349820
H        0.29994886      -2.74090223       0.69405931        0      -0.41524289      -0.15820233      -0.02567739       1.36614955       0.43794677      -0.50281247       1.36614955       0.43794677      -0.50281247     -13.79397364
H        1.25773718      -2.75425139       0.72015772        0      -0.28185394      -0.05155210      -0.72972998      -0.37524004      -0.46921014       0.40457242      -0.37524004      -0.46921014       0.40457242     -13.85698547
H        0.89804547      -1.75829642      -1.01966166        0       0.49814566       0.21255003       0.29722801       0.22535790       0.40384902       1.70944572       0.22535790       0.40384902       1.70944572     -13.85401190
12
Properties=species:S:1:pos:R:3:molID:I:1:momenta:R:3:force_mace:R:3:forces:R:3:energies:R:1 Nmols=1 Comp=DMC(1) energy_mace=-587.712092998572 energy=-587.712092998572 stress="5.2805029529814395e-06 1.1353545831653506e-05 -2.8228303718550718e-06 1.1353545831653506e-05 -3.890848315579416e-06 -8.572933441700093e-06 -2.8228303718550718e-06 -8.572933441700093e-06 -1.8721338363597156e-07" free_energy=-587.712092998572 pbc="F F F"
C       -0.07005335       0.04970059      -0.05901737        0       1.11631138       1.10615041      -0.11188144      -3.60055256      -3.45067635       0.69731297      -3.60055256      -3.45067635       0.69731297     -59.25580094
O       -1.24162056      -0.37610544      -0.17920275        0      -0.45980910       0.14554357      -0.21900253       2.99812574       1.03910443       0.32479603       2.99812574       1.03910443       0.32479603    -109.66985214
O        0.37617057       1.19211219       0.31847345        0       0.32630604      -0.26855371       0.05785796      -2.68513333       1.64856326      -0.61021422      -2.68513333       1.64856326      -0.61021422    -110.42239173
O        0.92230803      -0.80255179      -0.18289431        0       0.81551242       0.77706640      -0.02437498       2.11348513       0.18445112       0.27646104       2.11348513       0.18445112       0.27646104    -110.44365232
C       -0.85605194       2.05145114       0.15239920        0      -1.62813812      -1.32230711       1.48209355       3.93059730       2.87142887       1.72821589       3.93059730       2.87142887       1.72821589     -57.79670939
C        0.84486710      -2.08557119      -0.00611946        0      -0.17558390      -0.32083373       0.00047960       1.42926920      -0.53284824      -1.39735117       1.42926920      -0.53284824      -1.39735117     -57.30535145
H       -0.35314485       3.06395251      -0.24847461        0      -0.04030125       0.10602919      -0.10037236      -2.14716571      -2.30322644       1.30752638      -2.14716571      -2.30322644       1.30752638     -13.85519834
H       -1.57629571       1.55872889      -0.36253409        0      -0.20554847      -0.37970090      -0.43873706      -2.06850801       0.20885159      -2.70490281      -2.06850801       0.20885159      -2.70490281     -13.54769725
H       -1.50581440       1.87841876       1.03744136        0       0.19433374      -0.25602971      -0.30121081       1.19442414       1.04700820      -0.07636917       1.19442414       1.04700820      -0.07636917     -13.71332787
H        0.28141716      -2.85268197       0.42568938        0      -0.39168571      -0.34353176      -0.08849612      -1.30255683       0.37625131      -0.00165937      -1.30255683       0.37625131      -0.00165937     -13.82552337
H        1.07823408      -3.05229943       0.43564539        0      -0.08253956       0.39650179      -0.38157831       0.55102220       1.03538932      -0.07970521       0.55102220       1.03538932      -0.07970521     -13.78362429
H        1.44033178      -1.33255448      -0.68712135        0       0.53114252       0.35966556       0.12522251      -0.41300726      -2.12429706       0.53588965      -0.41300726      -2.12429706       0.53588965     -14.09296391
12
Properties=species:S:1:pos:R:3:molID:I:1:momenta:R:3:force_mace:R:3:forces:R:3:energies:R:1 Nmols=1 Comp=DMC(1) energy_mace=-587.8695524169361 energy=-587.8695524169361 stress="-1.872289603294846e-05 -7.890668716288709e-06 -2.4731333040418966e-06 -7.890668716288709e-06 -7.5357907977714025e-06 -4.644599228508779e-06 -2.4731333040418966e-06 -4.644599228508779e-06 5.763316334180214e-07" free_energy=-587.8695524169361 pbc="F F F"
C       -0.11477955      -0.01406867      -0.04722128        0       0.11676502      -2.00058987       0.40772916       8.48839668       3.31847951       1.74010423       8.48839668       3.31847951       1.74010423     -58.86841978
O       -1.15749680      -0.35882449      -0.21853562        0       1.24768041       0.04027666      -1.24519582      -7.39450446      -4.21517482      -1.43689480      -7.39450446      -4.21517482      -1.43689480    -110.08379949
O        0.28990005       1.21874679       0.33667395        0      -2.32662916       1.12403615       0.16612291      -1.83450891      -0.04255637      -0.66344218      -1.83450891      -0.04255637      -0.66344218    -110.32572389
O        1.04007698      -0.72992387      -0.16240443        0       2.15949269       0.82692556       0.81032061      -1.40947284      -0.60085072       0.85515046      -1.40947284      -0.60085072       0.85515046    -110.44838162
C       -0.94533042       1.92565857       0.21399969        0      -1.11198729      -1.31862532       0.53713674       1.39489888       5.83480559       2.72154007       1.39489888       5.83480559       2.72154007     -57.95291986
C        0.87358947      -2.08270696      -0.08962680        0       0.86336389       0.42433795      -1.15983559      -0.85886511      -1.79432486       1.08886976      -0.85886511      -1.79432486       1.08886976     -56.94760859
H       -0.84377061       3.09902785      -0.01732785        0      -0.34422154       0.42721145       0.42691765       0.87983048      -1.89576134       0.87608839       0.87983048      -1.89576134       0.87608839     -13.65228698
H       -1.41102082       1.69215830      -0.66651672        0       0.23596547       0.47686324       0.18992004      -2.03330651      -1.20024503      -1.69378672      -2.03330651      -1.20024503      -1.69378672     -13.78867166
H       -1.46963846       1.98954480       1.22494653        0      -0.02583323       0.05486490      -0.22489414       0.28637355      -0.79389314      -1.51922098       0.28637355      -0.79389314      -1.51922098     -13.93796987
H        0.13504374      -2.71359618       0.07985576        0      -0.56010884      -0.16242279      -0.22563878      -0.67342840      -1.56399602       0.45528839      -0.67342840      -1.56399602       0.45528839     -13.84419811
H        0.93862368      -3.06197790       0.42835006        0      -0.53653157       0.15598705       0.02975737      -0.89037431       1.95394860      -0.88285943      -0.89037431       1.95394860      -0.88285943     -13.82367971
H        1.48793409      -1.44961222      -0.27067302        0       0.28204417      -0.04886498       0.28765984       4.04496096       0.99956860      -1.54083719       4.04496096       0.99956860      -1.54083719     -14.19589285
12
Properties=species:S:1:pos:R:3:molID:I:1:momenta:R:3:force_mace:R:3:forces:R:3:energies:R:1 Nmols=1 Comp=DMC(1) energy_mace=-588.6436164097472 energy=-588.6436164097472 stress="1.6819616033141636e-05 9.497608189548075e-06 -1.2126196294164609e-06 9.497608189548075e-06 -3.339706810983528e-07 -3.490459340405087e-06 -1.2126196294164609e-06 -3.490459340405087e-06 4.551982530336469e-06" free_energy=-588.6436164097472 pbc="F F F"
C        0.04390944      -0.04521329      -0.00767862        0       0.77706171       0.34146828       0.33489032      -5.71184220       0.73539987      -1.21373192      -5.71184220       0.73539987      -1.21373192     -59.30709156
O       -1.17935599      -0.42070824      -0.29879463        0       0.79111483      -1.07205953      -1.26233616       5.12498926      -0.09910784       1.08189076       5.12498926      -0.09910784       1.08189076    -109.34959850
O        0.15375491       1.24511880       0.34158643        0      -1.55751361       0.15018641       0.18693486       0.81566351      -0.36035985      -0.17423029       0.81566351      -0.36035985      -0.17423029    -110.47863812
O        1.17099671      -0.74768125      -0.11157926        0       2.16582420      -1.35116236       0.76668818      -1.51005415       0.54457876       0.57730428      -1.51005415       0.54457876       0.57730428    -110.70851646
C       -1.04483176       1.98063074       0.24815976        0      -2.45015165       0.43027157       0.31460672      -1.55866515      -0.94457426       2.97168018      -1.55866515      -0.94457426       2.97168018     -58.15990889
C        0.93364730      -2.05015294      -0.14300490        0       1.00560378       1.00243282      -0.53458541       0.14716291       0.18549463       1.05773610       0.14716291       0.18549463       1.05773610     -57.38353024
H       -0.75295225       3.01409735       0.40568196        0       0.39412188       0.28994127       0.33377867      -0.44141457      -0.10664300      -0.25879318      -0.44141457      -0.10664300      -0.25879318     -14.03723048
H       -1.65341370       1.68541213      -0.59210896        0      -0.11008378       0.00996035       0.72543790       0.13232492       0.62826081      -0.66658145       0.13232492       0.62826081      -0.66658145     -13.98459024
H       -1.79213776       1.58347903       1.17992838        0      -0.24875638      -0.55482782      -0.31415528       1.72593168       1.06098554      -1.81051463       1.72593168       1.06098554      -1.81051463     -13.54698739
H        0.04702781      -2.54919848      -0.37286491        0       0.15548289       0.56342772      -0.73139049       0.29898251      -0.57097878       0.20684849       0.29898251      -0.57097878       0.20684849     -13.78692303
H        0.34752559      -2.79655486       0.46356693        0      -0.44292595       0.38058789       0.12823314       0.91175295       1.36333184      -1.42058101       0.91175295       1.36333184      -1.42058101     -13.72615016
H        1.80306959      -1.31792187      -0.22384871        0      -0.47977789      -0.19022659       0.05189754       0.06516833      -2.43638772      -0.35102732       0.06516833      -2.43638772      -0.35102732     -14.17445133
12
Properties=species:S:1:pos:R:3:molID:I:1:momenta:R:3:force_mace:R:3:forces:R:3:energies:R:1 Nmols=1 Comp=DMC(1) energy_mace=-588.6420578749027 energy=-588.6420578749027 stress="5.118347816158917e-06 -7.379654343067968e-06 -3.406264689865235e-06 -7.379654343067968e-06 -3.8102942040462572e-06 -3.886459314654526e-06 -3.406264689865235e-06 -3.886459314654526e-06 8.618650392253893e-06" free_energy=-588.6420578749027 pbc="F F F"
C       -0.07635894       0.02007676      -0.02670557        0      -2.06238093       1.74815527      -0.18511828       6.63797128       2.56949545       1.29899402       6.63797128       2.56949545       1.29899402     -58.89453804
O       -1.03141201      -0.48606416      -0.33510806        0       2.69693630      -1.48860830      -0.00810991      -5.43509077      -3.49798051      -1.69231541      -5.43509077      -3.49798051      -1.69231541    -110.18689758
O        0.09920099       1.27279458       0.31957506        0      -0.18500736       0.32869532      -1.06559162      -0.62960595       0.75788638      -0.32632608      -0.62960595       0.75788638      -0.32632608    -110.38411491
O        1.24836629      -0.76298514      -0.07543001        0       0.82401758       0.09434814       0.71523207      -0.45944910       0.18932009      -0.11062098      -0.45944910       0.18932009      -0.11062098    -110.48122897
C       -1.20275891       1.97672195       0.32728346        0      -1.66143732      -0.92550739      -0.26319363       0.06359673      -2.45538556      -0.18036091       0.06359673      -2.45538556      -0.18036091     -58.04235436
C        0.99154798      -2.02636848      -0.15606151        0       0.87461954       0.27457818      -0.41810878       0.26837045      -0.42840673       0.77443727       0.26837045      -0.42840673       0.77443727     -57.82489317
H       -0.93009574       2.93197179       0.70845365        0      -0.43964192       0.43210989       0.47034434      -0.31524199       0.74297551      -0.15860541      -0.31524199       0.74297551      -0.15860541     -14.03936143
H       -1.69976212       1.90210838      -0.73459749        0       0.58424716       0.41041003       0.22252857       0.95685150       0.38906975       2.11873793       0.95685150       0.38906975       2.11873793     -13.90938300
H       -1.76197910       1.35147619       1.10150660        0      -0.24756455      -0.10454883       0.52669206       0.01219921       1.15667887      -1.16826572       0.01219921       1.15667887      -1.16826572     -13.81158171
H        0.24827081      -2.56206253      -0.68198068        0       0.03802261      -0.28525625       0.02893222      -0.29722343       0.26412519       1.29008212      -0.29722343       0.26412519       1.29008212     -13.75104608
H        0.02157564      -2.44385999       0.29789744        0      -0.54588895      -0.11072231      -0.42320685       1.96288705      -0.00593291      -1.99664440       1.96288705      -0.00593291      -1.99664440     -13.54895248
H        2.08137027      -1.73798132      -0.11768680        0       0.12407784      -0.37365375       0.39959981      -2.76526498       0.31815447       0.15088758      -2.76526498       0.31815447       0.15088758     -13.76770615
12
Properties=species:S:1:pos:R:3:molID:I:1:momenta:R:3:force_mace:R:3:forces:R:3:energies:R:1 Nmols=1 Comp=DMC(1) energy_mace=-588.6777188876252 energy=-588.6777188876252 stress="1.2919743219335467e-05 4.860159126330074e-06 5.188460889139765e-07 4.860159126330074e-06 5.360679186778334e-06 -4.6575348405473875e-07 5.188460889139765e-07 -4.6575348405473875e-07 5.1054340948782805e-06" free_energy=-588.6777188876252 pbc="F F F"
C       -0.04579474       0.12039849      -0.02599267        0       0.90817313      -1.53475087      -1.10753907      -1.01591355      -5.85516438      -1.82954948      -1.01591355      -5.85516438      -1.82954948     -58.97344257
O       -0.99578029      -0.62310751      -0.36831970        0       0.39116379      -1.38976670      -0.22877924       2.37883362       3.68963351       1.31441270       2.37883362       3.68963351       1.31441270    -109.79612922
O        0.05123427       1.35002002       0.27814811        0      -1.20598987       2.72678175      -0.31281348      -1.22899876       1.63049594       1.26417778      -1.22899876       1.63049594       1.26417778    -110.62723800
O        1.27455593      -0.75317322      -0.01815867        0       0.17848018      -0.05486798       0.96080318      -1.30056188      -0.08940616      -0.29028172      -1.30056188      -0.08940616      -0.29028172    -110.31140071
C       -1.25746840       1.95640483       0.39722471        0       0.08525642       0.22197446       0.10064010      -1.14096328      -0.48926435      -2.40737504      -1.14096328      -0.48926435      -2.40737504     -57.89363272
C        1.02483338      -2.05242994      -0.18361587        0       0.16195884      -0.24011934      -0.21876848       0.50983058       1.40847899       0.92669076       0.50983058       1.40847899       0.92669076     -57.57136735
H       -1.35028086       2.88136573       0.88404059        0      -0.14531418       0.34156607       0.37428022       1.04954233       1.22857049       1.08025049       1.04954233       1.22857049       1.08025049     -13.98028652
H       -1.48075474       2.27844763      -0.70826035        0      -0.04890287       0.13928006       0.44665510      -0.37325143      -1.04584695       1.63889622      -0.37325143      -1.04584695       1.63889622     -13.76135185
H       -2.03983952       1.31834576       0.93272840        0      -0.77346635      -0.51348175      -0.19350429       1.22887457       0.07656100      -1.23930224       1.22887457       0.07656100      -1.23930224     -13.92180955
H        0.51057593      -2.76089910      -0.80612214        0       0.58336616      -0.18240406      -0.59656189       0.96849853       0.54028781      -0.55504673       0.96849853       0.54028781      -0.55504673     -13.80696363
H        0.08929900      -2.50049320      -0.14066669        0      -0.21771316      -0.21368849       0.15920836      -0.52144812      -0.63988576       0.69205431      -0.52144812      -0.63988576       0.69205431     -13.76236807
H        1.86620201      -1.56116436       0.28660979        0       0.08298789       0.69947684       0.61637948      -0.55444260      -0.45446015      -0.59492705      -0.55444260      -0.45446015      -0.59492705     -14.27172870
12
Properties=species:S:1:pos:R:3:molID:I:1:momenta:R:3:force_mace:R:3:forces:R:3:energies:R:1 Nmols=1 Comp=DMC(1) energy_mace=-588.29021032996 energy=-588.29021032996 stress="-1.1767679082362878e-05 -3.784556375875597e-06 2.006004708853196e-06 -3.784556375875597e-06 6.109511322272619e-06 1.5613934310543107e-06 2.006004708853196e-06 1.5613934310543107e-06 2.01336359949521e-06" free_energy=-588.29021032996 pbc="F F F"
C        0.03531338      -0.04297597      -0.12924063        0       1.32866326      -1.16781811      -1.26254631       0.79359281       4.30741900       2.30095612       0.79359281       4.30741900       2.30095612     -58.77429234
O       -0.94443780      -0.63610384      -0.36253488        0       0.33416870       0.75233603      -0.30006960      -1.59205482       0.32365182      -0.63741602      -1.59205482       0.32365182      -0.63741602    -110.14601056
O       -0.03358152       1.44419435       0.30135372        0      -0.92075142      -0.25841903       0.67166888       0.74896089      -4.02105764      -1.66836810       0.74896089      -4.02105764      -1.66836810    -109.92451679
O        1.24225378      -0.72069682       0.01489029        0      -1.26008827       1.01575946       0.64347233      -0.84193011       0.69104878      -0.58672164      -0.84193011       0.69104878      -0.58672164    -110.56014556
C       -1.31854891       1.95981303       0.42226368        0      -0.70767240       0.51609264      -0.28282580       1.43743289       1.30824189      -3.71778709       1.43743289       1.30824189      -3.71778709     -58.22865287
C        1.05618662      -2.01490554      -0.15434224        0       0.87669033       0.88081642       1.21932306      -0.36163101      -2.11640115      -1.67546989      -0.36163101      -2.11640115      -1.67546989     -57.20750855
H       -1.22139522       2.59170818       1.25619279        0       0.16034239      -0.58858415       0.48181667      -0.79430003       0.63487013       0.64956417      -0.79430003       0.63487013       0.64956417     -14.00003493
H       -1.67762237       2.48404888      -0.61775782        0      -0.07520992       0.36101776       0.14044998       1.18165191      -0.04053212       2.03739799       1.18165191      -0.04053212       2.03739799     -13.65595981
H       -1.93316017       1.16410163       0.32689734        0       0.00902087      -0.62703560      -0.42920190      -2.37606906      -2.10899534       1.27043885      -2.37606906      -2.10899534       1.27043885     -13.73587722
H        0.97991481      -2.67264623      -0.97973113        0       0.49292683      -0.13590062      -0.38980287       0.87794679       0.10606834      -0.48983280       0.87794679       0.10606834      -0.48983280     -13.82513438
H        0.37903111      -2.76605454      -0.43200057        0       0.16650890      -0.32906859      -0.42126581      -0.81588946       0.13737567       0.65574254      -0.81588946       0.13737567       0.65574254     -13.81460474
H        1.55717268      -1.50183520       0.46170295        0      -0.40459929      -0.41919619      -0.07101863       1.74228920       0.77831064       1.86149586       1.74228920       0.77831064       1.86149586     -14.41747258
12
Properties=species:S:1:pos:R:3:molID:I:1:momenta:R:3:force_mace:R:3:forces:R:3:energies:R:1 Nmols=1 Comp=DMC(1) energy_mace=-588.4704918285186 energy=-588.4704918285186 stress="-3.9384733321474234e-06 -1.168962425696036e-06 -1.0780137170549061e-06 -1.168962425696036e-06 1.5510285989657546e-05 -2.036386179527959e-06 -1.0780137170549061e-06 -2.036386179527959e-06 1.9722413935609125e-06" free_energy=-588.4704918285186 pbc="F F F"
C        0.05536982       0.00952103      -0.14648374        0      -1.41328167       2.30693195       0.85751290      -3.16429235       1.04208697       1.83971809      -3.16429235       1.04208697       1.83971809     -59.16198251
O       -0.95464384      -0.60881756      -0.37454642        0      -0.67340793       0.20372397      -0.59872230      -0.00974168       0.59066240      -0.65918827      -0.00974168       0.59066240      -0.65918827    -109.87377326
O       -0.07223775       1.35907210       0.27990430        0      -0.02902370      -1.94205274      -1.50517597       1.48888852      -1.36101261      -1.13513137       1.48888852      -1.36101261      -1.13513137    -110.17408180
O        1.19113226      -0.67849028       0.05210365        0       0.00862817      -0.14808323       0.96169982       1.89428373      -2.00057914       0.17226402       1.89428373      -2.00057914       0.17226402    -110.37070575
C       -1.33707187       1.95970609       0.38061466        0       0.42078545      -0.35979942       0.16525048       1.81221212       2.15218393      -0.61947403       1.81221212       2.15218393      -0.61947403     -58.19266122
C        1.13513410      -2.07908246      -0.13089582        0       2.09111638      -0.26809742       0.97842225       1.30580865       2.97647578       0.86402060       1.30580865       2.97647578       0.86402060     -57.45839691
H       -1.54257478       2.08775117       1.40455942        0      -0.61106851      -0.39985410      -0.00432580       0.22956398       1.06694012       1.33342831       0.22956398       1.06694012       1.33342831     -13.77158848
H       -1.35369442       2.95227869      -0.22500499        0       0.49963519       0.50326989       0.27259593      -0.13398525      -1.96259211       1.08198667      -0.13398525      -1.96259211       1.08198667     -13.96756975
H       -2.12836708       1.33738200       0.26426048        0      -0.51665947       0.43627998      -0.36513701      -2.07671093      -1.77657182      -1.63676514      -2.07671093      -1.77657182      -1.63676514     -13.81570638
H        1.52080595      -2.49169763      -0.99785735        0       0.49896980       0.00858556      -0.07495174      -1.31023386      -1.04005196       0.01054508      -1.31023386      -1.04005196       0.01054508     -13.84821286
H        0.57908241      -2.72012873      -0.77709069        0       0.08043979      -0.10384804      -0.42420523       1.31423631       0.84427871       0.31933202       1.31423631       0.84427871       0.31933202     -13.85838463
H        1.56486018      -1.50411260       0.78439379        0      -0.35613350      -0.23705639      -0.26296330      -1.35002923      -0.53182027      -1.57073600      -1.35002923      -0.53182027      -1.57073600     -13.97742829
12
Properties=species:S:1:pos:R:3:molID:I:1:momenta:R:3:force_mace:R:3:forces:R:3:energies:R:1 Nmols=1 Comp=DMC(1) energy_mace=-588.5896326763076 energy=-588.5896326763076 stress="1.6479033663066556e-06 -7.437503949049993e-06 -1.8652396292550736e-06 -7.437503949049993e-06 -8.89855028078672e-06 -1.9690732526757513e-06 -1.8652396292550736e-06 -1.9690732526757513e-06 2.0555022929300764e-06" free_energy=-588.5896326763076 pbc="F F F"
C       -0.11546143       0.06638908      -0.08916965        0      -2.05787481      -1.77908538       0.33094208       3.14050263      -4.40735696       0.09743991       3.14050263      -4.40735696       0.09743991     -58.90615801
O       -1.02664513      -0.57162623      -0.41037507        0      -1.66707966       0.09798261      -0.59583801      -2.63993970      -1.95624868      -1.17080037      -2.63993970      -1.95624868      -1.17080037    -110.02100684
O       -0.06215706       1.25126143       0.22945468        0       0.40486582      -0.32423771      -0.70238594       0.14152103       3.32779514       1.14386356       0.14152103       3.32779514       1.14386356    -110.59915626
O        1.20830894      -0.68582968       0.10526093        0      -0.09136187       0.68301297       0.89792152      -0.59312902       0.42894084       0.08329477      -0.59312902       0.42894084       0.08329477    -110.17616747
C       -1.34506961       1.92787340       0.37190180        0      -0.36006454      -0.47058202       0.06081871       2.54059444       2.37385482       0.53041103       2.54059444       2.37385482       0.53041103     -57.85227803
C        1.31183671      -2.03628614      -0.11625647        0       2.21273590       1.79509112      -0.48374790      -1.14500899       3.40745116      -0.03172584      -1.14500899       3.40745116      -0.03172584     -57.51197045
H       -1.67894174       1.93307931       1.40785204        0       0.14919524      -0.43027707      -0.37435828      -0.39754450      -0.86765421      -0.15125817      -0.39754450      -0.86765421      -0.15125817     -14.00450576
H       -0.80199536       2.91980296       0.32638925        0       0.43168108       0.16586418       0.59730649      -1.65885498       0.12574899      -0.48127211      -1.65885498       0.12574899      -0.48127211     -13.51484416
H       -2.06847920       1.73206557      -0.40575723        0       0.70718811       0.37864819      -0.34412242       0.22326504      -0.26916571       0.12349747       0.22326504      -0.26916571       0.12349747     -14.10890776
H        1.79413681      -2.57150531      -0.88312820        0       0.65010107      -0.22111772       0.34098138       0.60117848       0.08406206       0.56145048       0.60117848       0.08406206       0.56145048     -13.88098386
H        0.95240765      -2.42651085      -1.02514752        0      -0.08068100       0.03900619      -0.18795596      -0.51294928      -0.77792143       0.24232628      -0.51294928      -0.77792143       0.24232628     -13.78448848
H        1.25537004      -1.40112015       0.81283942        0      -0.29870534       0.06569465       0.46043831       0.30036484      -1.46950603      -0.94722700       0.30036484      -1.46950603      -0.94722700     -14.22916559
12
Properties=species:S:1:pos:R:3:molID:I:1:momenta:R:3:force_mace:R:3:forces:R:3:energies:R:1 Nmols=1 Comp=DMC(1) energy_mace=-589.1334116146387 energy=-589.1334116146387 stress="6.346530923106199e-06 1.8786987518731986e-06 2.206924456842056e-07 1.8786987518731986e-06 9.2440388145755e-06 -1.2058974978884561e-06 2.206924456842056e-07 -1.2058974978884561e-06 -1.0469502302178858e-07" free_energy=-589.1334116146387 pbc="F F F"
C       -0.13977090      -0.10386634      -0.05960982        0       0.06321892      -1.42525134       0.54789977      -2.28849466       1.07127461      -0.87613478      -2.28849466       1.07127461      -0.87613478     -59.09214475
O       -1.17358654      -0.63967004      -0.44972504        0      -2.26498274      -1.19853514      -0.21446483       2.74380835       0.89726139       1.10661525       2.74380835       0.89726139       1.10661525    -109.87596842
O       -0.04406984       1.24805449       0.20382977        0       0.10229613      -0.82367638      -0.18055125       1.14215772      -1.50797748       0.39051085       1.14215772      -1.50797748       0.39051085    -110.29900936
O        1.15383781      -0.62608442       0.15500845        0      -1.85762182       0.95929631       1.00905752      -0.63522317       0.82101864       0.08888952      -0.63522317       0.82101864       0.08888952    -110.64889343
C       -1.23727132       1.98029976       0.36965084        0       1.52129673       0.54366188      -0.29859994      -1.98073502      -2.86016867      -0.22006051      -1.98073502      -2.86016867      -0.22006051     -58.17548251
C        1.42939685      -1.86058119      -0.13495288        0       1.09143034       1.65899016      -0.48084228       0.80672797      -2.70571886      -2.71755761       0.80672797      -2.70571886      -2.71755761     -57.24827559
H       -1.94356548       1.32024089       1.07042962        0       0.11921435      -0.22697879      -1.11517126       1.06689972       1.56870265      -1.32857213       1.06689972       1.56870265      -1.32857213     -13.78432836
H       -1.12018571       2.96483763       0.75004471        0      -0.43317908       0.27347948       0.40539420       0.57440082       0.42617921       0.47440046       0.57440082       0.42617921       0.47440046     -14.10888802
H       -1.67224252       2.03067005      -0.64448524        0       0.42464965       0.41807702       0.29660304      -0.41799903       0.11076693       0.46271078      -0.41799903       0.11076693       0.46271078     -13.90385302
H        2.16526558      -2.49061194      -0.59907606        0       0.84413815       0.17665087       0.12585576       0.22765361       0.65646263       0.22246063       0.22765361       0.65646263       0.22246063     -13.89229990
H        1.36702645      -2.56114590      -0.93841668        0       0.51792225      -0.28037554       0.03145970      -0.52193440       0.40152285       0.03600210      -0.52193440       0.40152285       0.03600210     -13.90838697
H        1.17978548      -1.60113580       0.69913104        0      -0.12838288      -0.07533853      -0.12664042      -0.71726190       1.12067610       2.36073543      -0.71726190       1.12067610       2.36073543     -14.19588129
12
Properties=species:S:1:pos:R:3:molID:I:1:momenta:R:3:force_mace:R:3:forces:R:3:energies:R:1 Nmols=1 Comp=DMC(1) energy_mace=-589.0227616885306 energy=-589.0227616885306 stress="5.2440383029512285e-06 1.7289033703841453e-06 9.662911223289897e-07 1.7289033703841453e-06 8.23476215578773e-06 1.8789870778427567e-06 9.662911223289897e-07 1.8789870778427567e-06 6.1812416557990284e-06" free_energy=-589.0227616885306 pbc="F F F"
C       -0.22771023      -0.13418466      -0.08641295        0      -1.88054715       0.77090405      -1.10262521       0.40440365       1.70293754       0.35656049       0.40440365       1.70293754       0.35656049     -59.04468813
O       -1.24028015      -0.66498245      -0.37816307        0       0.07582735       0.16311407       1.53245514      -0.14823202      -0.29787192      -0.23629078      -0.14823202      -0.29787192      -0.23629078    -110.07007682
O        0.01391021       1.15798042       0.19697514        0       0.75747151      -1.43260931       0.19164688      -2.25097345       1.32010393      -0.11087288      -2.25097345       1.32010393      -0.11087288    -110.18017424
O        1.04620810      -0.58937430       0.20638568        0      -1.01529299      -0.21576413       0.79436088       1.03184325      -2.62814561      -0.75705703       1.03184325      -2.62814561      -0.75705703    -110.38074451
C       -1.18472367       2.00524495       0.28173927        0      -0.61507480      -0.06348983      -2.37747755      -1.33890962      -1.11253674      -2.44747137      -1.33890962      -1.11253674      -2.44747137     -58.12291133
C        1.55847611      -1.82736165      -0.15343151        0       1.13258367       0.05544784       1.50147245      -0.77390992       1.05083442       0.68899885      -0.77390992       1.05083442       0.68899885     -57.39476683
H       -2.09781971       1.31762818       0.42046013        0      -0.19423451       0.40313638      -0.41918167       1.28468075       0.94800300       0.02343276       1.28468075       0.94800300       0.02343276     -13.88617603
H       -1.11717079       2.72640964       1.07536772        0       0.36887866      -0.59896396       0.43406815       0.35070782       0.04488879       0.15071226       0.35070782       0.04488879       0.15071226     -14.13981892
H       -1.41334397       2.54197059      -0.76057953        0       0.46622106       0.29692999       0.36359503       0.89218503      -1.06408257       2.09421249       0.89218503      -1.06408257       2.09421249     -13.86959562
H        2.52488192      -1.97420305      -0.43470349        0       0.55534622       0.45006547      -0.06775240      -0.16582911      -1.02676904      -1.06325762      -0.16582911      -1.02676904      -1.06325762     -13.81015297
H        1.78840084      -2.47140520      -0.95924408        0       0.25195448       0.26855727      -0.52979213       0.44180587       1.47503535       0.95440470       0.44180587       1.47503535       0.95440470     -13.87078699
H        1.04851875      -1.56842092       0.66409162        0       0.09686650      -0.09732784      -0.32076956       0.27222774      -0.41239715       0.34662812       0.27222774      -0.41239715       0.34662812     -14.25286931
12
Properties=species:S:1:pos:R:3:molID:I:1:momenta:R:3:force_mace:R:3:forces:R:3:energies:R:1 Nmols=1 Comp=DMC(1) energy_mace=-588.1155460763196 energy=-588.1155460763196 stress="1.545927454181452e-05 6.725796458629894e-06 -6.254627331891911e-07 6.725796458629894e-06 -2.081584183516997e-06 -9.120169730637837e-06 -6.254627331891911e-07 -9.120169730637837e-06 9.046867107729268e-06" free_energy=-588.1155460763196 pbc="F F F"
C       -0.25407859      -0.03378094      -0.15020767        0       0.84925722       0.37616563      -0.22183492      -1.61693371      -6.22536353       0.93750694      -1.61693371      -6.22536353       0.93750694     -58.83610682
O       -1.28222188      -0.69588892      -0.27940936        0      -1.00377759      -0.91864296       1.59277829       2.22921325       2.10984431      -0.56287616       2.22921325       2.10984431      -0.56287616    -109.81223045
O       -0.04359293       1.13963142       0.19748212        0      -2.18472035       0.40669311      -0.30479450      -0.04090552       1.76130020      -0.84237412      -0.04090552       1.76130020      -0.84237412    -110.65754668
O        1.02721215      -0.67042245       0.24101675        0      -0.05655266      -1.97263861       0.60831108       0.29554079       0.09903421       0.50422078       0.29554079       0.09903421       0.50422078    -110.23641027
C       -1.19075351       1.98324399       0.16270936        0       0.68248968       0.20796309      -1.14214574       0.29173125       1.60362286      -1.22029317       0.29173125       1.60362286      -1.22029317     -57.90387527
C        1.69059069      -1.78775869      -0.10904036        0       1.58847590       1.08452605       0.11531610      -1.07423991       1.42256355      -1.81582338      -1.07423991       1.42256355      -1.81582338     -57.61921400
H       -2.23753025       1.48728600      -0.03643357        0      -0.02173620       0.04684053      -0.48372679       2.34015719       0.67057748       0.09480771       2.34015719       0.67057748       0.09480771     -13.94253649
H       -1.06035729       2.28892996       1.18665177        0      -0.36284293       0.06866461       0.08749478      -1.19801510       1.20203135       0.24951293      -1.19801510       1.20203135       0.24951293     -13.71826508
H       -0.85133106       2.86188606      -0.62005938        0       0.21435726       0.26390390       0.20185296      -1.48450924      -1.90586555       1.86378421      -1.48450924      -1.90586555       1.86378421     -13.71648660
H        2.61318671      -1.92594320      -0.58739645        0       0.14556731      -0.03150231       0.11261887       0.00560665       0.08198112       0.28449640       0.00560665       0.08198112       0.28449640     -13.89272026
H        1.99352410      -1.85246484      -1.22663170        0      -0.01564435       0.40819957      -0.45582711      -0.42003103      -0.73851533       1.75554536      -0.42003103      -0.73851533       1.75554536     -13.63966640
H        1.05166433      -1.65652314       0.76578466        0       0.16512670       0.05982739      -0.11004302       0.67238539      -0.08121065      -1.24850749       0.67238539      -0.08121065      -1.24850749     -14.14048775
12
Properties=species:S:1:pos:R:3:molID:I:1:momenta:R:3:force_mace:R:3:forces:R:3:energies:R:1 Nmols=1 Comp=DMC(1) energy_mace=-588.5825873483594 energy=-588.5825873483594 stress="-5.301153644030327e-06 -1.4545481326325048e-06 -2.1801289061006014e-06 -1.4545481326325048e-06 8.6014067346589e-06 1.4687982097279882e-06 -2.1801289061006014e-06 1.4687982097279882e-06 4.056714704345665e-06" free_energy=-588.5825873483594 pbc="F F F"
C       -0.25162865      -0.18833025      -0.11169989        0       0.73894988      -2.17780549       0.90948949       3.05764112       3.58104972       2.09401656       3.05764112       3.58104972       2.09401656     -58.70767234
O       -1.26767040      -0.70650135      -0.18074611        0      -0.75742393      -0.57280319       0.98557132      -3.64433009      -2.52678271      -1.18168962      -3.64433009      -2.52678271      -1.18168962    -110.09946770
O       -0.12453936       1.17232619       0.15315365        0       0.82488074      -0.29189268      -0.67397540       3.06708848      -1.64025059       0.26956821       3.06708848      -1.64025059       0.26956821    -110.28987710
O        1.01421741      -0.72044210       0.28271754        0      -0.66030787       0.31917727       1.17632944      -0.30627060       1.55780715       0.46828565      -0.30627060       1.55780715       0.46828565    -110.34863447
C       -1.16133625       2.04335519       0.08669893        0      -0.68184275       1.27146438      -0.68480358      -2.71410963       0.64942488      -2.74409153      -2.71410963       0.64942488      -2.74409153     -58.18881628
C        1.77530346      -1.65961324      -0.16324387        0       1.00286067       1.35400170      -1.20991607      -0.76733639      -2.03598722      -0.68331925      -0.76733639      -2.03598722      -0.68331925     -57.56458766
H       -1.94293930       1.42658431      -0.55677725        0      -0.05544226      -0.04903963      -0.56942155       0.75027750       2.06497644       1.10665005       0.75027750       2.06497644       1.10665005     -13.64343465
H       -1.62738248       2.36752668       1.02345372        0      -0.38095120      -0.11663219      -0.27633271       0.30631377      -0.61536612       0.04702182       0.30631377      -0.61536612       0.04702182     -14.03471790
H       -0.84805943       3.06114935      -0.43085495        0       0.09558522       0.48875530      -0.05092071      -0.42235254      -2.18306970       0.62087994      -0.42235254      -2.18306970       0.62087994     -13.84030873
H        2.71684214      -1.84130307      -0.62176005        0       0.11160473       0.22511732       0.26303974      -1.20799973       0.32552412      -0.09246672      -1.20799973       0.32552412      -0.09246672     -13.83565659
H        1.93003523      -2.07942653      -1.12805576        0       0.00480132      -0.54241919      -0.16490222       0.85027210       0.52091623       0.81980516       0.85027210       0.52091623       0.81980516     -13.79582192
H        1.09813508      -1.67074190       0.68711231        0      -0.24271455       0.09207640       0.29584225       1.03080600       0.30175780      -0.72466028       1.03080600       0.30175780      -0.72466028     -14.23359200
12
Properties=species:S:1:pos:R:3:molID:I:1:momenta:R:3:force_mace:R:3:forces:R:3:energies:R:1 Nmols=1 Comp=DMC(1) energy_mace=-588.2078566996782 energy=-588.2078566996782 stress="2.1946941737549735e-05 -1.6084377733168632e-06 -3.3391729353768586e-07 -1.6084377733168632e-06 1.559521030954475e-05 1.1265823208468436e-06 -3.3391729353768586e-07 1.1265823208468436e-06 7.129207737777795e-06" free_energy=-588.2078566996782 pbc="F F F"
C       -0.23734722      -0.25129228       0.01071656        0      -1.88208115      -0.11570172       1.43680275      -4.34660099       0.98055781      -0.09349687      -4.34660099       0.98055781      -0.09349687     -59.15268595
O       -1.34026875      -0.80304007      -0.15193314        0      -0.54905814      -1.64483541       0.54364174       3.70876322       1.47365580       0.17403104       3.70876322       1.47365580       0.17403104    -109.70100726
O       -0.07721561       1.12046995       0.10680288        0       0.18318763      -0.85371169      -1.07236211      -1.82651433      -0.20642789      -1.06014203      -1.82651433      -0.20642789      -1.06014203    -109.92104788
O        0.97699886      -0.70926267       0.37792555        0       0.17263132      -0.31445444       1.86382228       1.39790332      -0.35375075      -0.44779402       1.39790332      -0.35375075      -0.44779402    -110.24621469
C       -1.23189704       2.13861592      -0.05882997        0      -0.46664801       0.54622201      -1.61809214       1.25287004      -1.06384412       0.60441804       1.25287004      -1.06384412       0.60441804     -57.96883075
C        1.81467443      -1.58785161      -0.22319829        0       0.23780459       0.62210177      -0.30454745       3.76613774      -0.42727772      -2.70340997       3.76613774      -0.42727772      -2.70340997     -57.02460888
H       -1.97212649       1.93523667      -0.91732923        0      -0.17319318       0.37913648      -0.63719558       1.51422428      -0.24082494       1.58219201       1.51422428      -0.24082494       1.58219201     -14.06877613
H       -1.69116046       2.14161679       0.99156142        0       0.22770761      -0.21385572      -0.05235560       0.33260607       0.20675580      -1.78940296       0.33260607       0.20675580      -1.78940296     -14.03232302
H       -0.64414403       3.08102185      -0.28279390        0       0.75284617       0.55792231       0.02544598      -0.88725436      -1.18026063       0.42198051      -0.88725436      -1.18026063       0.42198051     -14.01516599
H        2.91032915      -1.50163776      -0.60830757        0       0.25481367       0.54300327      -0.06095748      -2.26844104      -0.11774825       0.44691195      -2.26844104      -0.11774825       0.44691195     -13.70060366
H        2.37245504      -2.05595954      -1.06223385        0       0.74080919       0.28563114      -0.24437010      -1.46194286       1.07385110       1.37775176      -1.46194286       1.07385110       1.37775176     -13.86235483
H        1.47634352      -1.50469689       0.63617101        0       0.50118030       0.20854201       0.12016772      -1.18175109      -0.14468620       1.48696054      -1.18175109      -0.14468620       1.48696054     -14.51423768
12
Properties=species:S:1:pos:R:3:molID:I:1:momenta:R:3:force_mace:R:3:forces:R:3:energies:R:1 Nmols=1 Comp=DMC(1) energy_mace=-588.0710210077472 energy=-588.0710210077472 stress="5.066420506577688e-06 -7.798344575718006e-06 -1.4341617786388039e-06 -7.798344575718006e-06 7.662427370763e-06 2.83191747764439e-06 -1.4341617786388039e-06 2.83191747764439e-06 1.1213435914834344e-05" free_energy=-588.0710210077472 pbc="F F F"
C       -0.43195888      -0.22963062       0.13866896        0      -0.89752301       1.09727249       1.17929869       4.48440166       1.97750450      -0.51996493       4.48440166       1.97750450      -0.51996493     -58.70845635
O       -1.33265466      -0.89015204      -0.12494211        0      -0.44294957      -1.66837926       0.01561153      -2.44047202      -1.61840607      -0.17312250      -2.44047202      -1.61840607      -0.17312250    -110.09570466
O       -0.11589023       1.04974584      -0.02033228        0      -1.81184944      -1.20536305      -2.34585990      -0.54917502       0.77364665       0.21398192      -0.54917502       0.77364665       0.21398192    -110.18763241
O        1.00265989      -0.71771868       0.48331745        0       0.04092838      -0.01225878       1.88135050      -1.52001637       0.26019214      -1.16329943      -1.52001637       0.26019214      -1.16329943    -110.07149471
C       -1.12376950       2.17197445      -0.18547496        0       2.75692198      -0.65805483      -0.51670375      -1.07825340      -3.77005530       0.55212371      -1.07825340      -3.77005530       0.55212371     -57.96763700
C        1.87041940      -1.48603744      -0.21705735        0       0.73367974       2.40784474       1.20221918       1.28409412       1.90468463       0.43988661       1.28409412       1.90468463       0.43988661     -57.11874567
H       -1.61218514       1.96870529      -1.23588775        0       0.23104756      -0.38279189      -0.62312852       0.71743265       0.79919300       2.35782792       0.71743265       0.79919300       2.35782792     -13.99344340
H       -1.73921154       2.02776484       0.78445742        0      -0.63162222      -0.12209423      -0.25964648       0.03850002       0.15771271      -1.90691395       0.03850002       0.15771271      -1.90691395     -13.87316003
H       -0.60384089       3.06555565      -0.00618563        0       0.31179990       0.61990859       0.32025026       0.83376007       0.93692122      -0.61629702       0.83376007       0.93692122      -0.61629702     -14.07823388
H        2.74717593      -1.00746763      -0.62222555        0      -0.16604183       0.25743335      -0.38683502      -0.62545874      -1.89451682      -1.03819970      -0.62545874      -1.89451682      -1.03819970     -13.67783868
H        2.43938659      -1.86056326      -1.05791895        0       0.01501561      -0.08826362      -0.33478074      -1.09296412       1.71164526       1.56829428      -1.09296412       1.71164526       1.56829428     -13.82109913
H        1.55268592      -1.45200707       0.72096167        0      -0.13940710      -0.24525350      -0.13177575      -0.05184885      -1.23852192       0.28568308      -0.05184885      -1.23852192       0.28568308     -14.47757510
12
Properties=species:S:1:pos:R:3:molID:I:1:momenta:R:3:force_mace:R:3:forces:R:3:energies:R:1 Nmols=1 Comp=DMC(1) energy_mace=-587.7372780563024 energy=-587.7372780563024 stress="6.2713418527576525e-06 -2.44532731185048e-07 -1.7625934563959346e-07 -2.44532731185048e-07 -8.066332237938909e-06 -9.04419924174292e-07 -1.7625934563959346e-07 -9.04419924174292e-07 7.96648463831643e-07" free_energy=-587.7372780563024 pbc="F F F"
C       -0.45161819      -0.21345332       0.15884500        0      -0.28269367      -2.00736870      -0.97250740      -0.15576926      -2.81177494      -1.47507505      -0.15576926      -2.81177494      -1.47507505     -58.77646980
O       -1.35900134      -0.96820603      -0.09478431        0       0.35797256       0.06421084       1.35094881       1.51959147       1.69427621       1.02839511       1.51959147       1.69427621       1.02839511    -109.87950597
O       -0.18649576       1.01277670      -0.16961604        0       0.34168061      -0.71393235      -1.85124527       2.88181406      -1.41381074       1.15936588       2.88181406      -1.41381074       1.15936588    -110.48894299
O        0.96699337      -0.71564880       0.59132926        0      -1.12463283       0.30791243       1.87902397      -0.84875134      -0.29370555      -0.00381484      -0.84875134      -0.29370555      -0.00381484    -110.24619902
C       -0.94826377       2.10795067      -0.21213709        0       0.78708105      -0.66145011      -0.82149407      -6.58981463      -3.22498658      -4.05879725      -6.58981463      -3.22498658      -4.05879725     -58.00644070
C        1.94623743      -1.29358709      -0.10707694        0       0.34176574       2.10455809       1.43823697      -1.76730319      -0.76189755      -0.67264139      -1.76730319      -0.76189755      -0.67264139     -57.34877519
H       -1.29885706       2.16254890      -1.29480766        0       0.13983259       0.40820274      -0.77206673       0.69074693       0.52063858       0.19089377       0.69074693       0.52063858       0.19089377     -13.55577812
H       -2.00289777       1.94725315       0.12874711        0      -0.29592740      -0.20822696      -0.27767887       0.84540745       0.17732378       1.19163696       0.84540745       0.17732378       1.19163696     -13.79983409
H       -0.50258883       2.93679932       0.00838241        0       0.38454470       0.17069205       0.15520809       2.59403724       4.39798532       1.82114383       2.59403724       4.39798532       1.82114383     -13.89376352
H        2.41574096      -0.89599928      -1.01951537        0      -0.21365978       0.27423949       0.13891650       0.43196831       0.81292097       1.21573707       0.43196831       0.81292097       1.21573707     -13.76884638
H        2.13965411      -1.62661954      -1.07536830        0      -0.46400500      -0.00330308      -0.19079358      -0.33327273      -0.58797103      -0.45350103      -0.33327273      -0.58797103      -0.45350103     -13.82401869
H        1.43064546      -1.74614905       0.68931366        0       0.02804143       0.26446555      -0.07654841       0.73134569       1.49100151       0.05665694       0.73134569       1.49100151       0.05665694     -14.14870358
12
Properties=species:S:1:pos:R:3:molID:I:1:momenta:R:3:force_mace:R:3:forces:R:3:energies:R:1 Nmols=1 Comp=DMC(1) energy_mace=-588.2734503777041 energy=-588.2734503777041 stress="2.431590302990243e-06 -2.0562446058693233e-06 1.6218173581682347e-07 -2.0562446058693233e-06 7.184553546486447e-06 -6.33876528292944e-06 1.6218173581682347e-07 -6.33876528292944e-06 -1.0011154320722877e-05" free_energy=-588.2734503777041 pbc="F F F"
C       -0.37156074      -0.33745411       0.05892847        0       2.08546977      -0.84176325      -0.92590211      -1.06449169       0.87252948       0.66898611      -1.06449169       0.87252948       0.66898611     -59.02001591
O       -1.36135610      -1.00548387      -0.01289409        0      -0.50448787      -0.99483301       1.24462862       1.33782958       0.92634061      -0.19453764       1.33782958       0.92634061      -0.19453764    -109.94269299
O       -0.09249899       0.95207501      -0.24118699        0       2.26125607      -0.97788951      -1.31660023      -0.32769726      -0.62095168      -0.39259471      -0.32769726      -0.62095168      -0.39259471    -110.10942118
O        0.88962709      -0.70201215       0.70601553        0      -2.02044281       0.15141450       1.66967649      -0.64450944      -0.41827181       0.45343607      -0.64450944      -0.41827181       0.45343607    -110.25105889
C       -0.99590448       2.12337071      -0.39456692        0      -0.35285305       0.27287092      -2.08250825       0.02440043      -3.84724209       2.17205701       0.02440043      -3.84724209       2.17205701     -57.98298203
C        1.87846672      -1.16776709      -0.05945275        0      -2.02743588       1.47580506       0.86279185      -1.09038777       1.27802641       3.89124395      -1.09038777       1.27802641       3.89124395     -57.57834735
H       -0.83536451       2.57446916      -1.27924716        0       0.65444847       0.23443191       0.06625909      -0.38200835       0.52500421      -3.35279947      -0.38200835       0.52500421      -3.35279947     -13.95673909
H       -1.94689858       1.90375895       0.05340655        0      -0.19832991       0.05375204       0.04749694      -0.60986085      -0.25888385      -0.68744231      -0.60986085      -0.25888385      -0.68744231     -14.10288887
H       -0.51944146       2.78549601       0.19569173        0      -0.43155726      -0.62567822       0.37450034       1.48852946       2.45161410       2.42888351       1.48852946       2.45161410       2.42888351     -13.68223906
H        2.31219032      -0.55034015      -0.78578149        0       0.17209494       0.27765551      -0.08222805       0.12703115      -1.02134963      -0.13436860       0.12703115      -1.02134963      -0.13436860     -13.79961914
H        1.77302301      -1.30341631      -1.01648066        0      -0.00994727       0.64076817      -0.44164710       0.73527989      -0.33617406      -2.54601839       0.73527989      -0.33617406      -2.54601839     -13.72175744
H        1.61495635      -1.38168870       1.05992302        0       0.37178479       0.33346588       0.58353240       0.40588484       0.44935830      -2.30684552       0.40588484       0.44935830      -2.30684552     -14.12568842
12
Properties=species:S:1:pos:R:3:molID:I:1:momenta:R:3:force_mace:R:3:forces:R:3:energies:R:1 Nmols=1 Comp=DMC(1) energy_mace=-588.1454703332319 energy=-588.1454703332319 stress="-7.680581232854721e-06 -7.910974913303133e-06 5.37246435878477e-06 -7.910974913303133e-06 5.2849345008688375e-06 6.943881367107828e-06 5.37246435878477e-06 6.943881367107828e-06 -1.0919661807645083e-05" free_energy=-588.1454703332319 pbc="F F F"
C       -0.32701404      -0.35858912       0.02631629        0      -0.78437896       0.73493446       0.17047973       0.59002078       2.96931597       1.79970309       0.59002078       2.96931597       1.79970309     -58.84666677
O       -1.31063107      -0.96861716       0.04436924        0       1.14883085       1.28918079       0.53397072      -1.94360162      -0.98057491      -0.76357971      -1.94360162      -0.98057491      -0.76357971    -110.01622363
O        0.01039007       0.88654438      -0.36426902        0       0.96926610      -1.26452271      -2.51220809      -1.42123658       0.40828344      -0.46184483      -1.42123658       0.40828344      -0.46184483    -110.08290848
O        0.79306364      -0.71829011       0.81652377        0      -0.87307264      -0.24455465       2.01500223       0.64445322      -0.33262395      -0.31433800       0.64445322      -0.33262395      -0.31433800    -110.45782567
C       -0.96586733       2.08589588      -0.45168512        0       1.38269692      -1.02030801       1.26145570      -0.25068539      -2.97304760       4.94825034      -0.25068539      -2.97304760       4.94825034     -57.86461044
C        1.73788937      -1.04078239      -0.01714672        0      -0.96307272       1.69193410      -0.45202934       0.66876364       0.06208715       0.68226487       0.66876364       0.06208715       0.68226487     -57.23244424
H       -0.67876020       2.49794460      -1.32799346        0      -0.21527737       0.00031837       0.10629626       0.98781093       1.87045567      -2.09311414       0.98781093       1.87045567      -2.09311414     -14.07823976
H       -2.01056040       1.74073242      -0.47900895        0       0.12976021      -0.37713921      -0.83733476       0.49441624      -0.33727112      -0.14920335       0.49441624      -0.33727112      -0.14920335     -14.03628830
H       -0.87270973       2.57575652       0.62693066        0      -0.62196522      -0.34934203      -0.59756120       0.16900200      -0.44138767      -2.56248942       0.16900200      -0.44138767      -2.56248942     -13.90576481
H        2.33284125      -0.54441075      -0.65002505        0       0.25211452       0.19687657      -0.06058332       0.67417286       0.97692933      -1.68719364       0.67417286       0.97692933      -1.68719364     -13.79905718
H        1.69642691      -1.11095376      -1.00936467        0      -0.45095735      -0.46762135       0.46630441       0.31974643      -0.43756328      -1.80230382       0.31974643      -0.43756328      -1.80230382     -13.78884579
H        1.87486582      -1.20393424       0.89653787        0       0.02605565      -0.18975633      -0.09379235      -0.93286251      -0.78460304       2.40384861      -0.93286251      -0.78460304       2.40384861     -14.03659527
12
Properties=species:S:1:pos:R:3:molID:I:1:momenta:R:3:force_mace:R:3:forces:R:3:energies:R:1 Nmols=1 Comp=DMC(1) energy_mace=-588.1433084415067 energy=-588.1433084415067 stress="-1.1308098169646914e-05 4.261204406166109e-06 -4.362806772313341e-06 4.261204406166109e-06 2.6300098591904068e-06 5.203641524485387e-06 -4.362806772313341e-06 5.203641524485387e-06 1.054696317912177e-05" free_energy=-588.1433084415067 pbc="F F F"
C       -0.34209383      -0.22161506       0.08842676        0      -0.75779767       1.34889751       1.30396368      -1.52672572      -2.63509588       1.30196920      -1.52672572      -2.63509588       1.30196920     -58.93933559
O       -1.32172695      -0.93287479       0.05796498        0      -0.12728473       0.62180258       0.04162538       1.06866656       2.07900648      -0.37375183       1.06866656       2.07900648      -0.37375183    -109.85360340
O        0.04807326       0.86361950      -0.51759046        0       0.96027275       0.29274607      -1.86235708       1.04466873       0.29739515       1.13377404       1.04466873       0.29739515       1.13377404    -110.63472905
O        0.76970567      -0.72278130       0.89114117        0      -0.26138831      -0.00341404       0.57813768      -0.15864806       0.22971409      -0.41473472      -0.15864806       0.22971409      -0.41473472    -110.46674985
C       -0.88659977       1.88885976      -0.44504297        0      -0.04077684      -2.44284064      -1.37792039      -1.05006685       2.71158221       0.00316860      -1.05006685       2.71158221       0.00316860     -57.94487156
C        1.71462682      -0.92730431       0.04307049        0       0.09035608       0.08793918       1.56749346       0.74019097      -2.60897891      -1.15699752       0.74019097      -2.60897891      -1.15699752     -57.27681872
H       -0.60482023       2.68024369      -1.15325896        0       0.33985313       0.36367647       0.63390134       0.58249668       0.09519544       0.38677204       0.58249668       0.09519544       0.38677204     -13.89615695
H       -1.65172358       1.39069654      -0.95776401        0       0.23613570      -0.22194394       0.10260423      -2.35123580      -0.20168388       0.12344063      -2.35123580      -0.20168388       0.12344063     -13.62807986
H       -1.19678348       2.46131621       0.57182188        0       0.02634522      -0.77019533      -0.49594505       1.09885874      -2.16852338      -2.00512644       1.09885874      -2.16852338      -2.00512644     -13.86824728
H        1.97743255      -0.62848841      -0.95145475        0      -0.50849198       0.13841818      -0.62710800       0.50003574       1.39407813       0.81329289       0.50003574       1.39407813       0.81329289     -13.72371246
H        1.73120274      -1.34984672      -0.96717444        0       0.41182569       0.22070672       0.36434249      -0.10635950      -0.49082071       0.50388359      -0.10635950      -0.49082071       0.50388359     -13.64370540
H        1.58367297      -1.34718319       1.01233509        0      -0.36904905       0.36420725      -0.22873775       0.15811850       1.29813126      -0.31569048       0.15811850       1.29813126      -0.31569048     -14.26729833
12
Properties=species:S:1:pos:R:3:molID:I:1:momenta:R:3:force_mace:R:3:forces:R:3:energies:R:1 Nmols=1 Comp=DMC(1) energy_mace=-587.10475194085 energy=-587.10475194085 stress="-5.263961944057469e-06 3.2746310474590665e-06 -2.9161115810252635e-06 3.2746310474590665e-06 -7.012721734826657e-06 8.636573207539053e-08 -2.9161115810252635e-06 8.636573207539053e-08 7.173506852573995e-06" free_energy=-587.10475194085 pbc="F F F"
C       -0.37551927      -0.19725431       0.21241402        0       0.57289636      -0.07143760       1.18483218       3.69890965      -0.51053826      -1.71165520       3.69890965      -0.51053826      -1.71165520     -58.69816374
O       -1.33062534      -0.84926656       0.05966759        0      -0.94906268       1.57417839       0.21843436      -1.89680593       0.26698988       0.21475909      -1.89680593       0.26698988       0.21475909    -110.06311637
O        0.11158885       0.84444280      -0.58710168        0       1.22319599      -0.70006960      -0.71222336      -1.72775891      -1.15120613       0.61936796      -1.72775891      -1.15120613       0.61936796    -110.40690009
O        0.74299848      -0.70375602       0.90346058        0      -0.47207946       0.36022935       0.17421980       0.44712332      -0.84552491       0.80946612       0.44712332      -0.84552491       0.80946612    -110.35240251
C       -0.91331227       1.79097866      -0.63141679        0      -1.53365764      -0.63890599      -1.74764964      -1.22447143      -0.74560000       5.16322038      -1.22447143      -0.74560000       5.16322038     -57.92668216
C        1.75340816      -0.94818555       0.07497011        0       0.41181649      -0.19505944       1.05962964      -0.41579057      -2.17861599       6.98404680      -0.41579057      -2.17861599       6.98404680     -57.32477274
H       -0.55655705       2.77367648      -0.64120778        0      -0.13814921      -0.15025768       0.21110969       0.43162009       1.12539410      -0.96410831       0.43162009       1.12539410      -0.96410831     -14.08579902
H       -1.85969604       1.52360755      -1.06805890        0       0.23940333       0.42618951      -0.26981296       0.26025516       0.01548160      -0.78695999       0.26025516       0.01548160      -0.78695999     -14.10082063
H       -1.25676833       1.71809552       0.68074604        0      -0.10738008      -0.59367420      -0.08784124      -0.28918748       1.21229685      -2.57368836      -0.28918748       1.21229685      -2.57368836     -12.88304241
H        1.67796052      -0.54194129      -0.74169444        0       0.34135645      -0.54837716      -0.05914224       1.47919279       1.40704728      -5.29351464       1.47919279       1.40704728      -5.29351464     -13.27859084
H        2.11407739      -1.34575126      -0.81916444        0       0.15729941       0.17499411       0.04857284      -0.59211796       0.47006109       0.43059609      -0.59211796       0.47006109       0.43059609     -13.88882487
H        1.57934828      -1.11875483       1.26040841        0       0.25436103       0.36219032      -0.02012909      -0.17096873       0.93421448      -2.89152994      -0.17096873       0.93421448      -2.89152994     -14.09563653
